 vasp.6.4.2 20Jul23 (build Aug 07 2024 12:45:50) gamma-only                     
  
 executed on             LinuxIFC date 2026.09.30  12:32:36
 running   64 mpi-ranks, on    1 nodes
 distrk:  each k-point on   64 cores,    1 groups
 distr:  one band on NCORE=  32 cores,    2 groups


--------------------------------------------------------------------------------------------------------


 INCAR:
   ALGO = Normal
   EDIFF = 1e-05
   EFERMI = Midgap
   ENCUT = 520.0
   GGA = Pe
   GGA_COMPAT = False
   IBRION = -1
   ISMEAR = 0
   ISPIN = 2
   ISYM = 0
   LAECHG = False
   LASPH = True
   LCHARG = False
   LMAXMIX = 6
   LMIXTAU = True
   LREAL = False
   LWAVE = False
   MAGMOM = 1*5.0
   NCORE = 32
   NELM = 400
   NSW = 0
   PREC = Accurate
   SIGMA = 0.05
   SYSTEM = Nb_atom_ispin2

 POTCAR:    PAW_PBE Nb_pv 08Apr2002               
 -----------------------------------------------------------------------------
|                                                                             |
|           W    W    AA    RRRRR   N    N  II  N    N   GGGG   !!!           |
|           W    W   A  A   R    R  NN   N  II  NN   N  G    G  !!!           |
|           W    W  A    A  R    R  N N  N  II  N N  N  G       !!!           |
|           W WW W  AAAAAA  RRRRR   N  N N  II  N  N N  G  GGG   !            |
|           WW  WW  A    A  R   R   N   NN  II  N   NN  G    G                |
|           W    W  A    A  R    R  N    N  II  N    N   GGGG   !!!           |
|                                                                             |
|     For optimal performance we recommend to set                             |
|       NCORE = 2 up to number-of-cores-per-socket                            |
|     NCORE specifies how many cores store one orbital (NPAR=cpu/NCORE).      |
|     This setting can greatly improve the performance of VASP for DFT.       |
|     The default, NCORE=1 might be grossly inefficient on modern             |
|     multi-core architectures or massively parallel machines. Do your        |
|     own testing! More info at https://www.vasp.at/wiki/index.php/NCORE      |
|     Unfortunately you need to use the default for GW and RPA                |
|     calculations (for HF NCORE is supported but not extensively tested      |
|     yet).                                                                   |
|                                                                             |
 -----------------------------------------------------------------------------

 POTCAR:    PAW_PBE Nb_pv 08Apr2002               
   SHA256 =  bac2b60850b34f8515cf56f9feae68b678e347865051052a0e1f5d2c6a691c0a Nb_pv/POTCAR          
   COPYR  = (c) Copyright 08Apr2002 Georg Kresse                                                    
   COPYR  = This file is part of the software VASP. Any use, copying, and all other rights are regul
   COPYR  = If you do not have a valid VASP license, you may not use, copy or distribute this file. 
   VRHFIN =Nb: 4p5s4d                                                                               
   LEXCH  = PE                                                                                      
   EATOM  =  1043.3917 eV,   76.6871 Ry                                                             
                                                                                                    
   TITEL  = PAW_PBE Nb_pv 08Apr2002                                                                 
   LULTRA =        F    use ultrasoft PP ?                                                          
   IUNSCR =        1    unscreen: 0-lin 1-nonlin 2-no                                               
   RPACOR =    2.200    partial core radius                                                         
   POMASS =   92.000; ZVAL   =   11.000    mass and valenz                                          
   RCORE  =    2.750    outmost cutoff radius                                                       
   RWIGS  =    2.840; RWIGS  =    1.503    wigner-seitz radius (au A)                               
   ENMAX  =  208.608; ENMIN  =  156.456 eV                                                          
   RCLOC  =    2.201    cutoff for local pot                                                        
   LCOR   =        T    correct aug charges                                                         
   LPAW   =        T    paw PP                                                                      
   EAUG   =  355.067                                                                                
   DEXC   =    0.000                                                                                
   RMAX   =    2.804    core radius for proj-oper                                                   
   RAUG   =    1.300    factor for augmentation sphere                                              
   RDEP   =    2.776    radius for radial grids                                                     
   RDEPT  =    2.198    core radius for aug-charge                                                  
                                                                                                    
   Atomic configuration                                                                             
   11 entries                                                                                       
     n  l   j            E        occ.                                                              
     1  0  0.50    -18805.2456   2.0000                                                             
     2  0  0.50     -2630.2869   2.0000                                                             
     2  1  1.50     -2348.4045   6.0000                                                             
     3  0  0.50      -438.8756   2.0000                                                             
     3  1  1.50      -346.7587   6.0000                                                             
     3  2  2.50      -196.2559  10.0000                                                             
     4  0  0.50       -58.3859   2.0000                                                             
     4  1  1.50       -34.5141   6.0000                                                             
     4  2  2.50        -3.0408   4.0000                                                             
     5  0  0.50        -3.9816   1.0000                                                             
     4  3  2.50        -1.3606   0.0000                                                             
   Description                                                                                      
     l       E           TYP  RCUT    TYP  RCUT                                                     
     1    -34.5140617     23  2.600                                                                 
     1     -1.3605826     23  2.600                                                                 
     2     -3.0407924     23  2.600                                                                 
     2     -1.4463597     23  2.600                                                                 
     0     -3.9816219     23  2.750                                                                 
     0     20.4087390     23  2.750                                                                 
  local pseudopotential read in
  partial core-charges read in
  partial kinetic energy density read in
  atomic valenz-charges read in
  non local Contribution for L=           1  read in
    real space projection operators read in
  non local Contribution for L=           1  read in
    real space projection operators read in
  non local Contribution for L=           2  read in
    real space projection operators read in
  non local Contribution for L=           2  read in
    real space projection operators read in
  non local Contribution for L=           0  read in
    real space projection operators read in
  non local Contribution for L=           0  read in
    real space projection operators read in
    PAW grid and wavefunctions read in
 
   number of l-projection  operators is LMAX  =           6
   number of lm-projection operators is LMMAX =          18
 
  PAW_PBE Nb_pv 08Apr2002               :
 energy of atom  1       EATOM=-1043.3917
 kinetic energy error for atom=    0.0011 (will be added to EATOM!!)
 
 
 POSCAR: Nb1
  positions in direct lattice
  No initial velocities read in
 exchange correlation table for  LEXCH =        8
   RHO(1)=    0.500       N(1)  =     2000
   RHO(2)=  100.500       N(2)  =     4000
 


--------------------------------------------------------------------------------------------------------


 ion  position               nearest neighbor table
   1  0.000  0.000  0.000-
 

IMPORTANT INFORMATION: All symmetrisations will be switched off!
NOSYMM: (Re-)initialisation of all symmetry stuff for point group C_1.


----------------------------------------------------------------------------------------

                                     Primitive cell                                     

  volume of cell :    5929.5600

  direct lattice vectors                    reciprocal lattice vectors
    18.000000000  0.000000000  0.000000000     0.055555556 -0.000000000  0.000000000
     0.000000000 18.100000000  0.000000000     0.000000000  0.055248619  0.000000000
     0.000000000  0.000000000 18.200000000    -0.000000000 -0.000000000  0.054945055

  length of vectors
    18.000000000 18.100000000 18.200000000     0.055555556  0.055248619  0.054945055

  position of ions in fractional coordinates (direct lattice)
     0.000000000  0.000000000  0.000000000

  ion indices of the primitive-cell ions
   primitive index   ion index
                 1           1

----------------------------------------------------------------------------------------

 
 
 KPOINTS: Automatic kpoint scheme                 

Automatic generation of k-mesh.
 Grid dimensions read from file:
 generate k-points for:    1    1    1

 Generating k-lattice:

  Cartesian coordinates                     Fractional coordinates (reciprocal lattice)
     0.055555556 -0.000000000  0.000000000     1.000000000 -0.000000000  0.000000000
     0.000000000  0.055248619  0.000000000     0.000000000  1.000000000  0.000000000
    -0.000000000 -0.000000000  0.054945055    -0.000000000 -0.000000000  1.000000000

  Length of vectors
     0.055555556  0.055248619  0.054945055

  Shift w.r.t. Gamma in fractional coordinates (k-lattice)
     0.000000000  0.000000000  0.000000000

 
 Subroutine IBZKPT returns following result:
 ===========================================
 
 Found      1 irreducible k-points:
 
 Following reciprocal coordinates:
            Coordinates               Weight
  0.000000  0.000000  0.000000      1.000000
 
 Following cartesian coordinates:
            Coordinates               Weight
  0.000000  0.000000  0.000000      1.000000
 


--------------------------------------------------------------------------------------------------------




 Dimension of arrays:
   k-points           NKPTS =      1   k-points in BZ     NKDIM =      1   number of bands    NBANDS=     12
   number of dos      NEDOS =    301   number of ions     NIONS =      1
   non local maximal  LDIM  =      6   non local SUM 2l+1 LMDIM =     18
   total plane-waves  NPLWV = ******
   max r-space proj   IRMAX =      1   max aug-charges    IRDMAX=  28688
   dimension x,y,z NGX =   140 NGY =  140 NGZ =  140
   dimension x,y,z NGXF=   280 NGYF=  280 NGZF=  280
   support grid    NGXF=   280 NGYF=  280 NGZF=  280
   ions per type =               1
   NGX,Y,Z   is equivalent  to a cutoff of  12.93, 12.86, 12.79 a.u.
   NGXF,Y,Z  is equivalent  to a cutoff of  25.86, 25.72, 25.58 a.u.

 SYSTEM =  Nb_atom_ispin2                          
 POSCAR =  Nb1                                     

 Startparameter for this run:
   NWRITE =      2    write-flag & timer
   PREC   = accura    normal or accurate (medium, high low for compatibility)
   ISTART =      0    job   : 0-new  1-cont  2-samecut
   ICHARG =      2    charge: 1-file 2-atom 10-const
   ISPIN  =      2    spin polarized calculation?
   LNONCOLLINEAR =      F non collinear calculations
   LSORBIT =      F    spin-orbit coupling
   INIWAV =      1    electr: 0-lowe 1-rand  2-diag
   LASPH  =      T    aspherical Exc in radial PAW
 Electronic Relaxation 1
   ENCUT  =  520.0 eV  38.22 Ry    6.18 a.u.  33.47 33.65 33.84*2*pi/ulx,y,z
   ENINI  =  520.0     initial cutoff
   ENAUG  =  355.1 eV  augmentation charge cutoff
   NELM   =    400;   NELMIN=  2; NELMDL= -5     # of ELM steps 
   EDIFF  = 0.1E-04   stopping-criterion for ELM
   LREAL  =      F    real-space projection
   NLSPLINE    = F    spline interpolate recip. space projectors
   LCOMPAT=      F    compatible to vasp.4.4
   GGA_COMPAT  = F    GGA compatible to vasp.4.4-vasp.4.6
   LMAXPAW     = -100 max onsite density
   LMAXMIX     =    6 max onsite mixed and CHGCAR
   VOSKOWN=      0    Vosko Wilk Nusair interpolation
   ROPT   =    0.00000
 Ionic relaxation
   EDIFFG = 0.1E-03   stopping-criterion for IOM
   NSW    =      0    number of steps for IOM
   NBLOCK =      1;   KBLOCK =      1    inner block; outer block 
   IBRION =     -1    ionic relax: 0-MD 1-quasi-New 2-CG
   NFREE  =      0    steps in history (QN), initial steepest desc. (CG)
   ISIF   =      2    stress and relaxation
   IWAVPR =     10    prediction:  0-non 1-charg 2-wave 3-comb
   ISYM   =      0    0-nonsym 1-usesym 2-fastsym
   LCORR  =      T    Harris-Foulkes like correction to forces

   POTIM  = 0.5000    time-step for ionic-motion
   TEIN   =    0.0    initial temperature
   TEBEG  =    0.0;   TEEND  =   0.0 temperature during run
   SMASS  =  -3.00    Nose mass-parameter (am)
   estimated Nose-frequenzy (Omega)   =  0.10E-29 period in steps = 0.13E+47 mass=  -0.740E-26a.u.
   SCALEE = 1.0000    scale energy and forces
   NPACO  =    256;   APACO  = 10.0  distance and # of slots for P.C.
   PSTRESS=    0.0 pullay stress

  Mass of Ions in am
   POMASS =  92.00
  Ionic Valenz
   ZVAL   =  11.00
  Atomic Wigner-Seitz radii
   RWIGS  =  -1.00
  virtual crystal weights 
   VCA    =   1.00
   NELECT =      11.0000    total number of electrons
   NUPDOWN=      -1.0000    fix difference up-down

 DOS related values:
   EMIN   =  10.00;   EMAX   =-10.00  energy-range for DOS
   EFERMI =   0.00;   METHOD = MIDGAP      
   ISMEAR =     0;   SIGMA  =   0.05  broadening in eV -4-tet -1-fermi 0-gaus

 Electronic relaxation 2 (details)
   IALGO  =     38    algorithm
   LDIAG  =      T    sub-space diagonalisation (order eigenvalues)
   LSUBROT=      F    optimize rotation matrix (better conditioning)
   TURBO    =      0    0=normal 1=particle mesh
   IRESTART =      0    0=no restart 2=restart with 2 vectors
   NREBOOT  =      0    no. of reboots
   NMIN     =      0    reboot dimension
   EREF     =   0.00    reference energy to select bands
   IMIX   =      4    mixing-type and parameters
     AMIX     =   0.40;   BMIX     =  1.00
     AMIX_MAG =   1.60;   BMIX_MAG =  1.00
     AMIN     =   0.10
     WC   =   100.;   INIMIX=   1;  MIXPRE=   1;  MAXMIX= -45

 Intra band minimization:
   WEIMIN = 0.0000     energy-eigenvalue tresh-hold
   EBREAK =  0.21E-06  absolut break condition
   DEPER  =   0.30     relativ break condition  

   TIME   =   0.40     timestep for ELM

  volume/ion in A,a.u.               =    5929.56     40014.65
  Fermi-wavevector in a.u.,A,eV,Ry     =   0.201155  0.380128  0.550539  0.040463
  Thomas-Fermi vector in A             =   0.956356
 
 Write flags
   LWAVE        =      F    write WAVECAR
   LDOWNSAMPLE  =      F    k-point downsampling of WAVECAR
   LCHARG       =      F    write CHGCAR
   LVTOT        =      F    write LOCPOT, total local potential
   LVHAR        =      F    write LOCPOT, Hartree potential only
   LELF         =      F    write electronic localiz. function (ELF)
   LORBIT       =      0    0 simple, 1 ext, 2 COOP (PROOUT), +10 PAW based schemes


 Dipole corrections
   LMONO  =      F    monopole corrections only (constant potential shift)
   LDIPOL =      F    correct potential (dipole corrections)
   IDIPOL =      0    1-x, 2-y, 3-z, 4-all directions 
   EPSILON=  1.0000000 bulk dielectric constant

 Exchange correlation treatment:
   GGA     =    PE    GGA type
   LEXCH   =     8    internal setting for exchange type
   LIBXC   =     F    Libxc                    
   VOSKOWN =     0    Vosko Wilk Nusair interpolation
   LHFCALC =     F    Hartree Fock is set to
   LHFONE  =     F    Hartree Fock one center treatment
   AEXX    =    0.0000 exact exchange contribution

 Linear response parameters
   LEPSILON=     F    determine dielectric tensor
   LRPA    =     F    only Hartree local field effects (RPA)
   LNABLA  =     F    use nabla operator in PAW spheres
   LVEL    =     F    velocity operator in full k-point grid
   CSHIFT  =0.1000    complex shift for real part using Kramers Kronig
   OMEGAMAX=  -1.0    maximum frequency
   DEG_THRESHOLD= 0.2000000E-02 threshold for treating states as degnerate
   RTIME   =   -0.100 relaxation time in fs
  (WPLASMAI=    0.000 imaginary part of plasma frequency in eV, 0.658/RTIME)
   DFIELD  = 0.0000000 0.0000000 0.0000000 field for delta impulse in time
 
  Optional k-point grid parameters
   LKPOINTS_OPT  =     F    use optional k-point grid
   KPOINTS_OPT_MODE=     1    mode for optional k-point grid
 
 Orbital magnetization related:
   ORBITALMAG=     F  switch on orbital magnetization
   LCHIMAG   =     F  perturbation theory with respect to B field
   DQ        =  0.001000  dq finite difference perturbation B field
   LLRAUG    =     F  two centre corrections for induced B field
   LBONE     =     F  B-component reconstruction in AE one-centre
   LVGVCALC  =     T  calculate vGv susceptibility
   LVGVAPPL  =     F  apply vGv susceptibility instead of pGv for G=0

 Random number generation:
   RANDOM_GENERATOR = DEFAULT
   PCG_SEED         = not used


--------------------------------------------------------------------------------------------------------


 Static calculation
 charge density and potential will be updated during run
 spin polarized calculation
 Variant of blocked Davidson
 Davidson routine will perform the subspace rotation
 perform sub-space diagonalisation
    after iterative eigenvector-optimisation
 modified Broyden-mixing scheme, WC =      100.0
 initial mixing is a Kerker type mixing with AMIX =  0.4000 and BMIX =      1.0000
 Hartree-type preconditioning will be used
 using additional bands            6
 reciprocal scheme for non local part
 use partial core corrections
 calculate Harris-corrections to forces 
   (improved forces if not selfconsistent)
 use gradient corrections 
 use of overlap-Matrix (Vanderbilt PP)
 Gauss-broadening in eV      SIGMA  =   0.05


--------------------------------------------------------------------------------------------------------


  energy-cutoff  :      520.00
  volume of cell :     5929.56
      direct lattice vectors                 reciprocal lattice vectors
    18.000000000  0.000000000  0.000000000     0.055555556 -0.000000000  0.000000000
     0.000000000 18.100000000  0.000000000     0.000000000  0.055248619  0.000000000
     0.000000000  0.000000000 18.200000000    -0.000000000 -0.000000000  0.054945055

  length of vectors
    18.000000000 18.100000000 18.200000000     0.055555556  0.055248619  0.054945055


 
 k-points in units of 2pi/SCALE and weight: Automatic kpoint scheme                 
   0.00000000  0.00000000  0.00000000       1.000
 
 k-points in reciprocal lattice and weights: Automatic kpoint scheme                 
   0.00000000  0.00000000  0.00000000       1.000
 
 position of ions in fractional coordinates (direct lattice) 
   0.00000000  0.00000000  0.00000000
 
 position of ions in cartesian coordinates  (Angst):
   0.00000000  0.00000000  0.00000000
 


--------------------------------------------------------------------------------------------------------


 use parallel FFT for orbitals z direction half grid
 k-point   1 :   0.0000 0.0000 0.0000  plane waves:   79868

 maximum and minimum number of plane-waves per node :      2508     2479

 maximum number of plane-waves:     79868
 maximum index in each direction: 
   IXMAX=   33   IYMAX=   33   IZMAX=   33
   IXMIN=  -33   IYMIN=  -33   IZMIN=    0


 parallel 3D FFT for wavefunctions:
    minimum data exchange during FFTs selected (reduces bandwidth)
 parallel 3D FFT for charge:
    minimum data exchange during FFTs selected (reduces bandwidth)


 total amount of memory used by VASP MPI-rank0    82068. kBytes
=======================================================================

   base      :      30000. kBytes
   nonl-proj :        396. kBytes
   fftplans  :      14937. kBytes
   grid      :      36243. kBytes
   one-center:         15. kBytes
   wavefun   :        477. kBytes
 
     INWAV:  cpu time      0.0000: real time      0.0000
 Broyden mixing: mesh for mixing (old mesh)
   NGX = 67   NGY = 67   NGZ = 67
  (NGX  =280   NGY  =280   NGZ  =280)
  gives a total of 300763 points

 initial charge density was supplied:
 charge density of overlapping atoms calculated
 number of electron      11.0000000 magnetization       5.0000000
 keeping initial charge density in first step


--------------------------------------------------------------------------------------------------------


 Maximum index for augmentation-charges         1097 (set IRDMAX)


--------------------------------------------------------------------------------------------------------


 First call to EWALD:  gamma=   0.098
 Maximum number of real-space cells 3x 3x 3
 Maximum number of reciprocal cells 3x 3x 3

    FEWALD:  cpu time      0.0020: real time      0.0020


--------------------------------------- Ionic step        1  -------------------------------------------




--------------------------------------- Iteration      1(   1)  ---------------------------------------


    POTLOK:  cpu time      0.5949: real time      0.5990
    SETDIJ:  cpu time      0.4560: real time      0.4583
     EDDAV:  cpu time      0.1512: real time      0.1533
       DOS:  cpu time      0.0005: real time      0.0005
    --------------------------------------------
      LOOP:  cpu time      1.2026: real time      1.2111

 eigenvalue-minimisations  :    48
 total energy-change (2. order) : 0.2211719E+03  (-0.1371408E+03)
 number of electron      11.0000000 magnetization       5.0000000
 augmentation part       11.0000000 magnetization       5.0000000

 Free energy of the ion-electron system (eV)
  ---------------------------------------------------
  alpha Z        PSCENC =         0.38173879
  Ewald energy   TEWEN  =      -136.56163451
  -Hartree energ DENC   =      -723.46463262
  -exchange      EXHF   =         0.00000000
  -V(xc)+E(xc)   XCENC  =        24.92756396
  PAW double counting   =       833.84378493     -817.90756437
  entropy T*S    EENTRO =        -0.02755629
  eigenvalues    EBANDS =        -3.41041071
  atomic energy  EATOM  =      1043.39062137
  Solvation  Ediel_sol  =         0.00000000
  ---------------------------------------------------
  free energy    TOTEN  =       221.17191054 eV

  energy without entropy =      221.19946683  energy(sigma->0) =      221.18568869


--------------------------------------------------------------------------------------------------------




--------------------------------------- Iteration      1(   2)  ---------------------------------------


     EDDAV:  cpu time      0.1908: real time      0.1935
       DOS:  cpu time      0.0003: real time      0.0003
    --------------------------------------------
      LOOP:  cpu time      0.1911: real time      0.1938

 eigenvalue-minimisations  :    80
 total energy-change (2. order) :-0.1833354E+03  (-0.1764146E+03)
 number of electron      11.0000000 magnetization       5.0000000
 augmentation part       11.0000000 magnetization       5.0000000

 Free energy of the ion-electron system (eV)
  ---------------------------------------------------
  alpha Z        PSCENC =         0.38173879
  Ewald energy   TEWEN  =      -136.56163451
  -Hartree energ DENC   =      -723.46463262
  -exchange      EXHF   =         0.00000000
  -V(xc)+E(xc)   XCENC  =        24.92756396
  PAW double counting   =       833.84378493     -817.90756437
  entropy T*S    EENTRO =        -0.00856334
  eigenvalues    EBANDS =      -186.76482099
  atomic energy  EATOM  =      1043.39062137
  Solvation  Ediel_sol  =         0.00000000
  ---------------------------------------------------
  free energy    TOTEN  =        37.83649321 eV

  energy without entropy =       37.84505655  energy(sigma->0) =       37.84077488


--------------------------------------------------------------------------------------------------------




--------------------------------------- Iteration      1(   3)  ---------------------------------------


     EDDAV:  cpu time      0.1784: real time      0.1803
       DOS:  cpu time      0.0004: real time      0.0004
    --------------------------------------------
      LOOP:  cpu time      0.1788: real time      0.1808

 eigenvalue-minimisations  :    64
 total energy-change (2. order) :-0.3226992E+02  (-0.2975226E+02)
 number of electron      11.0000000 magnetization       5.0000000
 augmentation part       11.0000000 magnetization       5.0000000

 Free energy of the ion-electron system (eV)
  ---------------------------------------------------
  alpha Z        PSCENC =         0.38173879
  Ewald energy   TEWEN  =      -136.56163451
  -Hartree energ DENC   =      -723.46463262
  -exchange      EXHF   =         0.00000000
  -V(xc)+E(xc)   XCENC  =        24.92756396
  PAW double counting   =       833.84378493     -817.90756437
  entropy T*S    EENTRO =        -0.03411438
  eigenvalues    EBANDS =      -219.00918796
  atomic energy  EATOM  =      1043.39062137
  Solvation  Ediel_sol  =         0.00000000
  ---------------------------------------------------
  free energy    TOTEN  =         5.56657520 eV

  energy without entropy =        5.60068958  energy(sigma->0) =        5.58363239


--------------------------------------------------------------------------------------------------------




--------------------------------------- Iteration      1(   4)  ---------------------------------------


     EDDAV:  cpu time      0.2098: real time      0.2120
       DOS:  cpu time      0.0002: real time      0.0002
    --------------------------------------------
      LOOP:  cpu time      0.2099: real time      0.2122

 eigenvalue-minimisations  :    88
 total energy-change (2. order) :-0.6242164E+01  (-0.4872983E+01)
 number of electron      11.0000000 magnetization       5.0000000
 augmentation part       11.0000000 magnetization       5.0000000

 Free energy of the ion-electron system (eV)
  ---------------------------------------------------
  alpha Z        PSCENC =         0.38173879
  Ewald energy   TEWEN  =      -136.56163451
  -Hartree energ DENC   =      -723.46463262
  -exchange      EXHF   =         0.00000000
  -V(xc)+E(xc)   XCENC  =        24.92756396
  PAW double counting   =       833.84378493     -817.90756437
  entropy T*S    EENTRO =        -0.00000000
  eigenvalues    EBANDS =      -225.28546676
  atomic energy  EATOM  =      1043.39062137
  Solvation  Ediel_sol  =         0.00000000
  ---------------------------------------------------
  free energy    TOTEN  =        -0.67558922 eV

  energy without entropy =       -0.67558922  energy(sigma->0) =       -0.67558922


--------------------------------------------------------------------------------------------------------




--------------------------------------- Iteration      1(   5)  ---------------------------------------


     EDDAV:  cpu time      0.2109: real time      0.2131
       DOS:  cpu time      0.0003: real time      0.0003
    CHARGE:  cpu time      0.0479: real time      0.0483
    MIXING:  cpu time      0.0114: real time      0.0115
    --------------------------------------------
      LOOP:  cpu time      0.2706: real time      0.2733

 eigenvalue-minimisations  :    80
 total energy-change (2. order) :-0.1357864E+01  (-0.5269705E+00)
 number of electron      10.9999996 magnetization       5.0000000
 augmentation part        4.1783170 magnetization       0.9635145

 Broyden mixing:
  rms(total) = 0.97117E+00    rms(broyden)= 0.97116E+00
  rms(prec ) = 0.97709E+00
  weight for this iteration     100.00

 Free energy of the ion-electron system (eV)
  ---------------------------------------------------
  alpha Z        PSCENC =         0.38173879
  Ewald energy   TEWEN  =      -136.56163451
  -Hartree energ DENC   =      -723.46463262
  -exchange      EXHF   =         0.00000000
  -V(xc)+E(xc)   XCENC  =        24.92756396
  PAW double counting   =       833.84378493     -817.90756437
  entropy T*S    EENTRO =        -0.00001825
  eigenvalues    EBANDS =      -226.64331252
  atomic energy  EATOM  =      1043.39062137
  Solvation  Ediel_sol  =         0.00000000
  ---------------------------------------------------
  free energy    TOTEN  =        -2.03345323 eV

  energy without entropy =       -2.03343498  energy(sigma->0) =       -2.03344410


--------------------------------------------------------------------------------------------------------




--------------------------------------- Iteration      1(   6)  ---------------------------------------


    POTLOK:  cpu time      0.5703: real time      0.5745
    SETDIJ:  cpu time      0.4579: real time      0.4601
     EDDAV:  cpu time      0.1606: real time      0.1619
       DOS:  cpu time      0.0002: real time      0.0002
    CHARGE:  cpu time      0.0458: real time      0.0463
    MIXING:  cpu time      0.0109: real time      0.0109
    --------------------------------------------
      LOOP:  cpu time      1.2457: real time      1.2539

 eigenvalue-minimisations  :    60
 total energy-change (2. order) : 0.5960875E+01  (-0.1242845E+01)
 number of electron      10.9999996 magnetization       5.0000000
 augmentation part        4.2142718 magnetization       0.7289456

 Broyden mixing:
  rms(total) = 0.34740E+00    rms(broyden)= 0.34740E+00
  rms(prec ) = 0.35418E+00
  weight for this iteration     100.00

 eigenvalues of (default mixing * dielectric matrix)
  average eigenvalue GAMMA=   0.7781
  0.7781

 Free energy of the ion-electron system (eV)
  ---------------------------------------------------
  alpha Z        PSCENC =         0.38173879
  Ewald energy   TEWEN  =      -136.56163451
  -Hartree energ DENC   =      -727.53176885
  -exchange      EXHF   =         0.00000000
  -V(xc)+E(xc)   XCENC  =        29.82405356
  PAW double counting   =       833.81516000     -817.67373131
  entropy T*S    EENTRO =        -0.00000000
  eigenvalues    EBANDS =      -221.71701741
  atomic energy  EATOM  =      1043.39062137
  Solvation  Ediel_sol  =         0.00000000
  ---------------------------------------------------
  free energy    TOTEN  =         3.92742164 eV

  energy without entropy =        3.92742164  energy(sigma->0) =        3.92742164


--------------------------------------------------------------------------------------------------------




--------------------------------------- Iteration      1(   7)  ---------------------------------------


    POTLOK:  cpu time      0.5766: real time      0.5810
    SETDIJ:  cpu time      0.4566: real time      0.4587
     EDDAV:  cpu time      0.1733: real time      0.1749
       DOS:  cpu time      0.0003: real time      0.0003
    CHARGE:  cpu time      0.0466: real time      0.0470
    MIXING:  cpu time      0.0121: real time      0.0122
    --------------------------------------------
      LOOP:  cpu time      1.2655: real time      1.2742

 eigenvalue-minimisations  :    64
 total energy-change (2. order) :-0.5281060E+01  (-0.3170932E+00)
 number of electron      10.9999996 magnetization       5.0000000
 augmentation part        4.1238425 magnetization       0.8014928

 Broyden mixing:
  rms(total) = 0.14646E+00    rms(broyden)= 0.14646E+00
  rms(prec ) = 0.15274E+00
  weight for this iteration     100.00

 eigenvalues of (default mixing * dielectric matrix)
  average eigenvalue GAMMA=   0.8059
  0.8059  0.8059

 Free energy of the ion-electron system (eV)
  ---------------------------------------------------
  alpha Z        PSCENC =         0.38173879
  Ewald energy   TEWEN  =      -136.56163451
  -Hartree energ DENC   =      -729.68910520
  -exchange      EXHF   =         0.00000000
  -V(xc)+E(xc)   XCENC  =        26.15736588
  PAW double counting   =       849.93207150     -833.92638200
  entropy T*S    EENTRO =        -0.00468616
  eigenvalues    EBANDS =      -221.03362815
  atomic energy  EATOM  =      1043.39062137
  Solvation  Ediel_sol  =         0.00000000
  ---------------------------------------------------
  free energy    TOTEN  =        -1.35363849 eV

  energy without entropy =       -1.34895233  energy(sigma->0) =       -1.35129541


--------------------------------------------------------------------------------------------------------




--------------------------------------- Iteration      1(   8)  ---------------------------------------


    POTLOK:  cpu time      0.5861: real time      0.5907
    SETDIJ:  cpu time      0.4577: real time      0.4599
     EDDAV:  cpu time      0.1650: real time      0.1667
       DOS:  cpu time      0.0003: real time      0.0003
    CHARGE:  cpu time      0.0459: real time      0.0463
    MIXING:  cpu time      0.0124: real time      0.0125
    --------------------------------------------
      LOOP:  cpu time      1.2674: real time      1.2764

 eigenvalue-minimisations  :    64
 total energy-change (2. order) :-0.7152537E+00  (-0.1817420E-01)
 number of electron      10.9999996 magnetization       5.0000000
 augmentation part        4.1228473 magnetization       0.8141478

 Broyden mixing:
  rms(total) = 0.17063E+00    rms(broyden)= 0.17063E+00
  rms(prec ) = 0.17797E+00
  weight for this iteration     100.00

 eigenvalues of (default mixing * dielectric matrix)
  average eigenvalue GAMMA=   0.6136
  0.8033  0.8033  0.2342

 Free energy of the ion-electron system (eV)
  ---------------------------------------------------
  alpha Z        PSCENC =         0.38173879
  Ewald energy   TEWEN  =      -136.56163451
  -Hartree energ DENC   =      -729.31792399
  -exchange      EXHF   =         0.00000000
  -V(xc)+E(xc)   XCENC  =        25.56575825
  PAW double counting   =       862.99595014     -847.06451657
  entropy T*S    EENTRO =        -0.01055324
  eigenvalues    EBANDS =      -221.44833247
  atomic energy  EATOM  =      1043.39062137
  Solvation  Ediel_sol  =         0.00000000
  ---------------------------------------------------
  free energy    TOTEN  =        -2.06889223 eV

  energy without entropy =       -2.05833899  energy(sigma->0) =       -2.06361561


--------------------------------------------------------------------------------------------------------




--------------------------------------- Iteration      1(   9)  ---------------------------------------


    POTLOK:  cpu time      0.5844: real time      0.5889
    SETDIJ:  cpu time      0.4570: real time      0.4592
     EDDAV:  cpu time      0.2175: real time      0.2197
       DOS:  cpu time      0.0004: real time      0.0004
    CHARGE:  cpu time      0.0466: real time      0.0471
    MIXING:  cpu time      0.0110: real time      0.0111
    --------------------------------------------
      LOOP:  cpu time      1.3169: real time      1.3264

 eigenvalue-minimisations  :    92
 total energy-change (2. order) :-0.1986998E+00  (-0.6515779E-02)
 number of electron      10.9999996 magnetization       5.0000000
 augmentation part        4.1223322 magnetization       0.8184002

 Broyden mixing:
  rms(total) = 0.24815E+00    rms(broyden)= 0.24815E+00
  rms(prec ) = 0.25983E+00
  weight for this iteration     100.00

 eigenvalues of (default mixing * dielectric matrix)
  average eigenvalue GAMMA=   0.4962
  0.8051  0.8051  0.3084  0.0663

 Free energy of the ion-electron system (eV)
  ---------------------------------------------------
  alpha Z        PSCENC =         0.38173879
  Ewald energy   TEWEN  =      -136.56163451
  -Hartree energ DENC   =      -729.20511746
  -exchange      EXHF   =         0.00000000
  -V(xc)+E(xc)   XCENC  =        25.42186380
  PAW double counting   =       864.55694211     -848.63802168
  entropy T*S    EENTRO =        -0.01157588
  eigenvalues    EBANDS =      -221.60240859
  atomic energy  EATOM  =      1043.39062137
  Solvation  Ediel_sol  =         0.00000000
  ---------------------------------------------------
  free energy    TOTEN  =        -2.26759205 eV

  energy without entropy =       -2.25601617  energy(sigma->0) =       -2.26180411


--------------------------------------------------------------------------------------------------------




--------------------------------------- Iteration      1(  10)  ---------------------------------------


    POTLOK:  cpu time      0.5789: real time      0.5838
    SETDIJ:  cpu time      0.4575: real time      0.4597
     EDDAV:  cpu time      0.1499: real time      0.1514
       DOS:  cpu time      0.0003: real time      0.0003
    CHARGE:  cpu time      0.0456: real time      0.0462
    MIXING:  cpu time      0.0109: real time      0.0110
    --------------------------------------------
      LOOP:  cpu time      1.2431: real time      1.2525

 eigenvalue-minimisations  :    56
 total energy-change (2. order) : 0.3379245E-01  (-0.5181151E-03)
 number of electron      10.9999996 magnetization       5.0000000
 augmentation part        4.1225442 magnetization       0.8174364

 Broyden mixing:
  rms(total) = 0.26164E+00    rms(broyden)= 0.26164E+00
  rms(prec ) = 0.27376E+00
  weight for this iteration     100.00

 eigenvalues of (default mixing * dielectric matrix)
  average eigenvalue GAMMA=   0.5258
  0.8113  0.8113  0.4302  0.2882  0.2882

 Free energy of the ion-electron system (eV)
  ---------------------------------------------------
  alpha Z        PSCENC =         0.38173879
  Ewald energy   TEWEN  =      -136.56163451
  -Hartree energ DENC   =      -729.22193036
  -exchange      EXHF   =         0.00000000
  -V(xc)+E(xc)   XCENC  =        25.44488655
  PAW double counting   =       863.22689565     -847.30079628
  entropy T*S    EENTRO =        -0.01202573
  eigenvalues    EBANDS =      -221.58155508
  atomic energy  EATOM  =      1043.39062137
  Solvation  Ediel_sol  =         0.00000000
  ---------------------------------------------------
  free energy    TOTEN  =        -2.23379960 eV

  energy without entropy =       -2.22177387  energy(sigma->0) =       -2.22778673


--------------------------------------------------------------------------------------------------------




--------------------------------------- Iteration      1(  11)  ---------------------------------------


    POTLOK:  cpu time      0.5863: real time      0.5906
    SETDIJ:  cpu time      0.4575: real time      0.4597
     EDDAV:  cpu time      0.2241: real time      0.2262
       DOS:  cpu time      0.0003: real time      0.0003
    CHARGE:  cpu time      0.0463: real time      0.0468
    MIXING:  cpu time      0.0116: real time      0.0117
    --------------------------------------------
      LOOP:  cpu time      1.3260: real time      1.3353

 eigenvalue-minimisations  :    96
 total energy-change (2. order) :-0.8527472E-04  (-0.4083220E-04)
 number of electron      10.9999996 magnetization       5.0000000
 augmentation part        4.1223753 magnetization       0.8173986

 Broyden mixing:
  rms(total) = 0.26331E+00    rms(broyden)= 0.26331E+00
  rms(prec ) = 0.27547E+00
  weight for this iteration     100.00

 eigenvalues of (default mixing * dielectric matrix)
  average eigenvalue GAMMA=   0.7907
  0.9733  0.9733  0.8467  0.8467  0.5691  0.5347

 Free energy of the ion-electron system (eV)
  ---------------------------------------------------
  alpha Z        PSCENC =         0.38173879
  Ewald energy   TEWEN  =      -136.56163451
  -Hartree energ DENC   =      -729.22269226
  -exchange      EXHF   =         0.00000000
  -V(xc)+E(xc)   XCENC  =        25.44532219
  PAW double counting   =       863.20473067     -847.27843559
  entropy T*S    EENTRO =        -0.01170872
  eigenvalues    EBANDS =      -221.58182681
  atomic energy  EATOM  =      1043.39062137
  Solvation  Ediel_sol  =         0.00000000
  ---------------------------------------------------
  free energy    TOTEN  =        -2.23388487 eV

  energy without entropy =       -2.22217616  energy(sigma->0) =       -2.22803051


--------------------------------------------------------------------------------------------------------




--------------------------------------- Iteration      1(  12)  ---------------------------------------


    POTLOK:  cpu time      0.5767: real time      0.5805
    SETDIJ:  cpu time      0.4576: real time      0.4598
     EDDAV:  cpu time      0.1648: real time      0.1664
       DOS:  cpu time      0.0003: real time      0.0003
    CHARGE:  cpu time      0.0454: real time      0.0459
    MIXING:  cpu time      0.0114: real time      0.0115
    --------------------------------------------
      LOOP:  cpu time      1.2563: real time      1.2644

 eigenvalue-minimisations  :    64
 total energy-change (2. order) :-0.1437326E+00  (-0.5225334E-02)
 number of electron      10.9999996 magnetization       5.0000000
 augmentation part        4.1177138 magnetization       0.8175225

 Broyden mixing:
  rms(total) = 0.24988E+00    rms(broyden)= 0.24987E+00
  rms(prec ) = 0.26019E+00
  weight for this iteration     100.00

 eigenvalues of (default mixing * dielectric matrix)
  average eigenvalue GAMMA=   0.7145
  0.9375  0.9375  0.5102  0.8716  0.8716  0.5928  0.2801

 Free energy of the ion-electron system (eV)
  ---------------------------------------------------
  alpha Z        PSCENC =         0.38173879
  Ewald energy   TEWEN  =      -136.56163451
  -Hartree energ DENC   =      -729.46263918
  -exchange      EXHF   =         0.00000000
  -V(xc)+E(xc)   XCENC  =        25.33917126
  PAW double counting   =       861.26329195     -845.32441250
  entropy T*S    EENTRO =        -0.02865577
  eigenvalues    EBANDS =      -221.37509884
  atomic energy  EATOM  =      1043.39062137
  Solvation  Ediel_sol  =         0.00000000
  ---------------------------------------------------
  free energy    TOTEN  =        -2.37761743 eV

  energy without entropy =       -2.34896166  energy(sigma->0) =       -2.36328955


--------------------------------------------------------------------------------------------------------




--------------------------------------- Iteration      1(  13)  ---------------------------------------


    POTLOK:  cpu time      0.5863: real time      0.5906
    SETDIJ:  cpu time      0.4566: real time      0.4589
     EDDAV:  cpu time      0.1955: real time      0.1973
       DOS:  cpu time      0.0003: real time      0.0003
    CHARGE:  cpu time      0.0459: real time      0.0464
    MIXING:  cpu time      0.0136: real time      0.0137
    --------------------------------------------
      LOOP:  cpu time      1.2982: real time      1.3072

 eigenvalue-minimisations  :    80
 total energy-change (2. order) :-0.5782370E-01  (-0.3640264E-02)
 number of electron      10.9999996 magnetization       5.0000000
 augmentation part        4.1181099 magnetization       0.8198977

 Broyden mixing:
  rms(total) = 0.24350E+00    rms(broyden)= 0.24350E+00
  rms(prec ) = 0.25421E+00
  weight for this iteration     100.00

 eigenvalues of (default mixing * dielectric matrix)
  average eigenvalue GAMMA=   0.7058
  1.0422  1.0422  0.5603  0.8832  0.8832  0.6036  0.3773  0.2547

 Free energy of the ion-electron system (eV)
  ---------------------------------------------------
  alpha Z        PSCENC =         0.38173879
  Ewald energy   TEWEN  =      -136.56163451
  -Hartree energ DENC   =      -729.22365828
  -exchange      EXHF   =         0.00000000
  -V(xc)+E(xc)   XCENC  =        25.29275105
  PAW double counting   =       862.89412441     -846.96855911
  entropy T*S    EENTRO =        -0.02817194
  eigenvalues    EBANDS =      -221.61265291
  atomic energy  EATOM  =      1043.39062137
  Solvation  Ediel_sol  =         0.00000000
  ---------------------------------------------------
  free energy    TOTEN  =        -2.43544113 eV

  energy without entropy =       -2.40726919  energy(sigma->0) =       -2.42135516


--------------------------------------------------------------------------------------------------------




--------------------------------------- Iteration      1(  14)  ---------------------------------------


    POTLOK:  cpu time      0.5825: real time      0.5865
    SETDIJ:  cpu time      0.4572: real time      0.4593
     EDDAV:  cpu time      0.1966: real time      0.1983
       DOS:  cpu time      0.0004: real time      0.0004
    CHARGE:  cpu time      0.0460: real time      0.0466
    MIXING:  cpu time      0.0118: real time      0.0119
    --------------------------------------------
      LOOP:  cpu time      1.2945: real time      1.3030

 eigenvalue-minimisations  :    80
 total energy-change (2. order) :-0.2671971E-02  (-0.9043735E-04)
 number of electron      10.9999996 magnetization       5.0000000
 augmentation part        4.1180964 magnetization       0.8200186

 Broyden mixing:
  rms(total) = 0.25621E+00    rms(broyden)= 0.25621E+00
  rms(prec ) = 0.26736E+00
  weight for this iteration     100.00

 eigenvalues of (default mixing * dielectric matrix)
  average eigenvalue GAMMA=   0.6597
  1.1018  1.1018  0.8851  0.8851  0.6099  0.5702  0.4087  0.1875  0.1875

 Free energy of the ion-electron system (eV)
  ---------------------------------------------------
  alpha Z        PSCENC =         0.38173879
  Ewald energy   TEWEN  =      -136.56163451
  -Hartree energ DENC   =      -729.24759707
  -exchange      EXHF   =         0.00000000
  -V(xc)+E(xc)   XCENC  =        25.29430229
  PAW double counting   =       862.95737179     -847.03203024
  entropy T*S    EENTRO =        -0.02826839
  eigenvalues    EBANDS =      -221.59261712
  atomic energy  EATOM  =      1043.39062137
  Solvation  Ediel_sol  =         0.00000000
  ---------------------------------------------------
  free energy    TOTEN  =        -2.43811310 eV

  energy without entropy =       -2.40984471  energy(sigma->0) =       -2.42397890


--------------------------------------------------------------------------------------------------------




--------------------------------------- Iteration      1(  15)  ---------------------------------------


    POTLOK:  cpu time      0.5694: real time      0.5735
    SETDIJ:  cpu time      0.4569: real time      0.4591
     EDDAV:  cpu time      0.1653: real time      0.1667
       DOS:  cpu time      0.0003: real time      0.0003
    CHARGE:  cpu time      0.0445: real time      0.0452
    MIXING:  cpu time      0.0122: real time      0.0123
    --------------------------------------------
      LOOP:  cpu time      1.2486: real time      1.2572

 eigenvalue-minimisations  :    64
 total energy-change (2. order) :-0.9177777E-02  (-0.3459974E-03)
 number of electron      10.9999996 magnetization       5.0000000
 augmentation part        4.1181997 magnetization       0.8203099

 Broyden mixing:
  rms(total) = 0.23286E+00    rms(broyden)= 0.23286E+00
  rms(prec ) = 0.24342E+00
  weight for this iteration     100.00

 eigenvalues of (default mixing * dielectric matrix)
  average eigenvalue GAMMA=   0.6355
  1.0827  1.0827  0.8792  0.8792  0.6122  0.4328  0.5467  0.3020  0.3020  0.2355

 Free energy of the ion-electron system (eV)
  ---------------------------------------------------
  alpha Z        PSCENC =         0.38173879
  Ewald energy   TEWEN  =      -136.56163451
  -Hartree energ DENC   =      -729.18904922
  -exchange      EXHF   =         0.00000000
  -V(xc)+E(xc)   XCENC  =        25.28053730
  PAW double counting   =       863.15904391     -847.23463801
  entropy T*S    EENTRO =        -0.03017623
  eigenvalues    EBANDS =      -221.64373428
  atomic energy  EATOM  =      1043.39062137
  Solvation  Ediel_sol  =         0.00000000
  ---------------------------------------------------
  free energy    TOTEN  =        -2.44729088 eV

  energy without entropy =       -2.41711465  energy(sigma->0) =       -2.43220276


--------------------------------------------------------------------------------------------------------




--------------------------------------- Iteration      1(  16)  ---------------------------------------


    POTLOK:  cpu time      0.5913: real time      0.5954
    SETDIJ:  cpu time      0.4568: real time      0.4590
     EDDAV:  cpu time      0.1958: real time      0.1976
       DOS:  cpu time      0.0004: real time      0.0004
    CHARGE:  cpu time      0.0448: real time      0.0453
    MIXING:  cpu time      0.0124: real time      0.0125
    --------------------------------------------
      LOOP:  cpu time      1.3014: real time      1.3101

 eigenvalue-minimisations  :    80
 total energy-change (2. order) :-0.4713852E-02  (-0.1613691E-04)
 number of electron      10.9999996 magnetization       5.0000000
 augmentation part        4.1182721 magnetization       0.8204762

 Broyden mixing:
  rms(total) = 0.24160E+00    rms(broyden)= 0.24160E+00
  rms(prec ) = 0.25253E+00
  weight for this iteration     100.00

 eigenvalues of (default mixing * dielectric matrix)
  average eigenvalue GAMMA=   0.7617
  1.2575  1.2575  0.7324  0.7324  0.9007  0.9007  0.6618  0.6618  0.5467  0.4745
  0.2532

 Free energy of the ion-electron system (eV)
  ---------------------------------------------------
  alpha Z        PSCENC =         0.38173879
  Ewald energy   TEWEN  =      -136.56163451
  -Hartree energ DENC   =      -729.19173828
  -exchange      EXHF   =         0.00000000
  -V(xc)+E(xc)   XCENC  =        25.27874708
  PAW double counting   =       863.32547856     -847.40178312
  entropy T*S    EENTRO =        -0.03013948
  eigenvalues    EBANDS =      -221.64329512
  atomic energy  EATOM  =      1043.39062137
  Solvation  Ediel_sol  =         0.00000000
  ---------------------------------------------------
  free energy    TOTEN  =        -2.45200473 eV

  energy without entropy =       -2.42186525  energy(sigma->0) =       -2.43693499


--------------------------------------------------------------------------------------------------------




--------------------------------------- Iteration      1(  17)  ---------------------------------------


    POTLOK:  cpu time      0.5765: real time      0.5805
    SETDIJ:  cpu time      0.4564: real time      0.4587
     EDDAV:  cpu time      0.1851: real time      0.1867
       DOS:  cpu time      0.0003: real time      0.0003
    CHARGE:  cpu time      0.0446: real time      0.0453
    MIXING:  cpu time      0.0122: real time      0.0124
    --------------------------------------------
      LOOP:  cpu time      1.2752: real time      1.2840

 eigenvalue-minimisations  :    72
 total energy-change (2. order) :-0.5303714E-01  (-0.7338841E-02)
 number of electron      10.9999996 magnetization       4.9999999
 augmentation part        4.1177413 magnetization       0.8226228

 Broyden mixing:
  rms(total) = 0.12192E+00    rms(broyden)= 0.12191E+00
  rms(prec ) = 0.12658E+00
  weight for this iteration     100.00

 eigenvalues of (default mixing * dielectric matrix)
  average eigenvalue GAMMA=   0.7584
  1.0405  1.0405  0.7700  0.7700  1.0010  1.0010  0.8013  0.8013  0.6335  0.5223
  0.4663  0.2528

 Free energy of the ion-electron system (eV)
  ---------------------------------------------------
  alpha Z        PSCENC =         0.38173879
  Ewald energy   TEWEN  =      -136.56163451
  -Hartree energ DENC   =      -728.99027305
  -exchange      EXHF   =         0.00000000
  -V(xc)+E(xc)   XCENC  =        25.21505847
  PAW double counting   =       863.53322532     -847.62104449
  entropy T*S    EENTRO =        -0.02728208
  eigenvalues    EBANDS =      -221.82545168
  atomic energy  EATOM  =      1043.39062137
  Solvation  Ediel_sol  =         0.00000000
  ---------------------------------------------------
  free energy    TOTEN  =        -2.50504187 eV

  energy without entropy =       -2.47775978  energy(sigma->0) =       -2.49140082


--------------------------------------------------------------------------------------------------------




--------------------------------------- Iteration      1(  18)  ---------------------------------------


    POTLOK:  cpu time      0.5789: real time      0.5833
    SETDIJ:  cpu time      0.4567: real time      0.4589
     EDDAV:  cpu time      0.1534: real time      0.1547
       DOS:  cpu time      0.0003: real time      0.0003
    CHARGE:  cpu time      0.0450: real time      0.0456
    MIXING:  cpu time      0.0122: real time      0.0123
    --------------------------------------------
      LOOP:  cpu time      1.2466: real time      1.2552

 eigenvalue-minimisations  :    56
 total energy-change (2. order) :-0.3145562E+00  (-0.2091731E-01)
 number of electron      10.9999996 magnetization       4.9999999
 augmentation part        4.1188188 magnetization       0.8321804

 Broyden mixing:
  rms(total) = 0.23105E+00    rms(broyden)= 0.23105E+00
  rms(prec ) = 0.24129E+00
  weight for this iteration     100.00

 eigenvalues of (default mixing * dielectric matrix)
  average eigenvalue GAMMA=   0.7914
  1.2797  1.2797  1.1443  1.1443  0.7173  0.7173  0.7601  0.7601  0.6552  0.5269
  0.5876  0.4650  0.2504

 Free energy of the ion-electron system (eV)
  ---------------------------------------------------
  alpha Z        PSCENC =         0.38173879
  Ewald energy   TEWEN  =      -136.56163451
  -Hartree energ DENC   =      -728.73275232
  -exchange      EXHF   =         0.00000000
  -V(xc)+E(xc)   XCENC  =        24.98127921
  PAW double counting   =       869.91108393     -854.03535388
  entropy T*S    EENTRO =        -0.02913674
  eigenvalues    EBANDS =      -222.12544388
  atomic energy  EATOM  =      1043.39062137
  Solvation  Ediel_sol  =         0.00000000
  ---------------------------------------------------
  free energy    TOTEN  =        -2.81959803 eV

  energy without entropy =       -2.79046130  energy(sigma->0) =       -2.80502966


--------------------------------------------------------------------------------------------------------




--------------------------------------- Iteration      1(  19)  ---------------------------------------


    POTLOK:  cpu time      0.5790: real time      0.5828
    SETDIJ:  cpu time      0.4560: real time      0.4583
     EDDAV:  cpu time      0.1669: real time      0.1685
       DOS:  cpu time      0.0003: real time      0.0003
    CHARGE:  cpu time      0.0445: real time      0.0451
    MIXING:  cpu time      0.0128: real time      0.0129
    --------------------------------------------
      LOOP:  cpu time      1.2596: real time      1.2678

 eigenvalue-minimisations  :    64
 total energy-change (2. order) :-0.5920910E-01  (-0.6152870E-02)
 number of electron      10.9999996 magnetization       4.9999999
 augmentation part        4.1180599 magnetization       0.8330358

 Broyden mixing:
  rms(total) = 0.15157E+00    rms(broyden)= 0.15157E+00
  rms(prec ) = 0.15781E+00
  weight for this iteration     100.00

 eigenvalues of (default mixing * dielectric matrix)
  average eigenvalue GAMMA=   0.8630
  1.3823  1.2838  1.2838  1.3511  1.3511  0.6943  0.6943  0.7478  0.7478  0.7034
  0.6113  0.5139  0.4665  0.2509

 Free energy of the ion-electron system (eV)
  ---------------------------------------------------
  alpha Z        PSCENC =         0.38173879
  Ewald energy   TEWEN  =      -136.56163451
  -Hartree energ DENC   =      -728.57578958
  -exchange      EXHF   =         0.00000000
  -V(xc)+E(xc)   XCENC  =        24.91436731
  PAW double counting   =       869.00474387     -853.12570596
  entropy T*S    EENTRO =        -0.02880432
  eigenvalues    EBANDS =      -222.27834410
  atomic energy  EATOM  =      1043.39062137
  Solvation  Ediel_sol  =         0.00000000
  ---------------------------------------------------
  free energy    TOTEN  =        -2.87880713 eV

  energy without entropy =       -2.85000282  energy(sigma->0) =       -2.86440497


--------------------------------------------------------------------------------------------------------




--------------------------------------- Iteration      1(  20)  ---------------------------------------


    POTLOK:  cpu time      0.5797: real time      0.5839
    SETDIJ:  cpu time      0.4558: real time      0.4580
     EDDAV:  cpu time      0.1892: real time      0.1942
       DOS:  cpu time      0.0004: real time      0.0004
    CHARGE:  cpu time      0.0441: real time      0.0446
    MIXING:  cpu time      0.0131: real time      0.0132
    --------------------------------------------
      LOOP:  cpu time      1.2822: real time      1.2943

 eigenvalue-minimisations  :    76
 total energy-change (2. order) :-0.1015323E+00  (-0.5473137E-02)
 number of electron      10.9999996 magnetization       4.9999999
 augmentation part        4.1200246 magnetization       0.8392424

 Broyden mixing:
  rms(total) = 0.18264E+00    rms(broyden)= 0.18264E+00
  rms(prec ) = 0.18998E+00
  weight for this iteration     100.00

 eigenvalues of (default mixing * dielectric matrix)
  average eigenvalue GAMMA=   0.8135
  1.3643  1.3643  1.3299  1.3299  0.7562  0.7562  0.6971  0.6140  0.5170  0.6782
  0.6782  0.7007  0.7007  0.4649  0.2510

 Free energy of the ion-electron system (eV)
  ---------------------------------------------------
  alpha Z        PSCENC =         0.38173879
  Ewald energy   TEWEN  =      -136.56163451
  -Hartree energ DENC   =      -728.27807353
  -exchange      EXHF   =         0.00000000
  -V(xc)+E(xc)   XCENC  =        24.84273276
  PAW double counting   =       873.21085174     -857.36011637
  entropy T*S    EENTRO =        -0.02793476
  eigenvalues    EBANDS =      -222.57852489
  atomic energy  EATOM  =      1043.39062137
  Solvation  Ediel_sol  =         0.00000000
  ---------------------------------------------------
  free energy    TOTEN  =        -2.98033941 eV

  energy without entropy =       -2.95240465  energy(sigma->0) =       -2.96637203


--------------------------------------------------------------------------------------------------------




--------------------------------------- Iteration      1(  21)  ---------------------------------------


    POTLOK:  cpu time      0.5942: real time      0.5988
    SETDIJ:  cpu time      0.4546: real time      0.4569
     EDDAV:  cpu time      0.1588: real time      0.1601
       DOS:  cpu time      0.0004: real time      0.0004
    CHARGE:  cpu time      0.0444: real time      0.0450
    MIXING:  cpu time      0.0129: real time      0.0130
    --------------------------------------------
      LOOP:  cpu time      1.2652: real time      1.2741

 eigenvalue-minimisations  :    60
 total energy-change (2. order) :-0.1396214E-02  (-0.2387199E-03)
 number of electron      10.9999996 magnetization       4.9999999
 augmentation part        4.1202265 magnetization       0.8396001

 Broyden mixing:
  rms(total) = 0.19681E+00    rms(broyden)= 0.19681E+00
  rms(prec ) = 0.20468E+00
  weight for this iteration     100.00

 eigenvalues of (default mixing * dielectric matrix)
  average eigenvalue GAMMA=   0.8422
  1.3580  1.3580  1.0547  1.0547  1.3525  1.3525  0.6844  0.6844  0.4662  0.7195
  0.7195  0.7380  0.5677  0.5569  0.5569  0.2509

 Free energy of the ion-electron system (eV)
  ---------------------------------------------------
  alpha Z        PSCENC =         0.38173879
  Ewald energy   TEWEN  =      -136.56163451
  -Hartree energ DENC   =      -728.28086053
  -exchange      EXHF   =         0.00000000
  -V(xc)+E(xc)   XCENC  =        24.84227330
  PAW double counting   =       873.28468913     -857.43379602
  entropy T*S    EENTRO =        -0.02767267
  eigenvalues    EBANDS =      -222.57709446
  atomic energy  EATOM  =      1043.39062137
  Solvation  Ediel_sol  =         0.00000000
  ---------------------------------------------------
  free energy    TOTEN  =        -2.98173562 eV

  energy without entropy =       -2.95406295  energy(sigma->0) =       -2.96789928


--------------------------------------------------------------------------------------------------------




--------------------------------------- Iteration      1(  22)  ---------------------------------------


    POTLOK:  cpu time      0.5731: real time      0.5774
    SETDIJ:  cpu time      0.4549: real time      0.4571
     EDDAV:  cpu time      0.1960: real time      0.1979
       DOS:  cpu time      0.0003: real time      0.0003
    CHARGE:  cpu time      0.0452: real time      0.0459
    MIXING:  cpu time      0.0131: real time      0.0132
    --------------------------------------------
      LOOP:  cpu time      1.2826: real time      1.2918

 eigenvalue-minimisations  :    80
 total energy-change (2. order) :-0.1224948E-01  (-0.2271758E-02)
 number of electron      10.9999996 magnetization       4.9999999
 augmentation part        4.1194551 magnetization       0.8398448

 Broyden mixing:
  rms(total) = 0.69968E-01    rms(broyden)= 0.69965E-01
  rms(prec ) = 0.71918E-01
  weight for this iteration     100.00

 eigenvalues of (default mixing * dielectric matrix)
  average eigenvalue GAMMA=   0.8497
  1.3027  1.3027  1.0026  1.0026  1.3995  1.3995  0.6863  0.6863  0.4662  0.8541
  0.8541  0.7407  0.6766  0.6766  0.6186  0.5253  0.2509

 Free energy of the ion-electron system (eV)
  ---------------------------------------------------
  alpha Z        PSCENC =         0.38173879
  Ewald energy   TEWEN  =      -136.56163451
  -Hartree energ DENC   =      -728.23827357
  -exchange      EXHF   =         0.00000000
  -V(xc)+E(xc)   XCENC  =        24.81780859
  PAW double counting   =       873.03639380     -857.18987359
  entropy T*S    EENTRO =        -0.02727728
  eigenvalues    EBANDS =      -222.60348870
  atomic energy  EATOM  =      1043.39062137
  Solvation  Ediel_sol  =         0.00000000
  ---------------------------------------------------
  free energy    TOTEN  =        -2.99398510 eV

  energy without entropy =       -2.96670782  energy(sigma->0) =       -2.98034646


--------------------------------------------------------------------------------------------------------




--------------------------------------- Iteration      1(  23)  ---------------------------------------


    POTLOK:  cpu time      0.5758: real time      0.5804
    SETDIJ:  cpu time      0.4546: real time      0.4569
     EDDAV:  cpu time      0.1954: real time      0.1973
       DOS:  cpu time      0.0003: real time      0.0003
    CHARGE:  cpu time      0.0443: real time      0.0449
    MIXING:  cpu time      0.0133: real time      0.0134
    --------------------------------------------
      LOOP:  cpu time      1.2837: real time      1.2932

 eigenvalue-minimisations  :    80
 total energy-change (2. order) :-0.9210885E-01  (-0.2495851E-02)
 number of electron      10.9999996 magnetization       4.9999999
 augmentation part        4.1181844 magnetization       0.8420607

 Broyden mixing:
  rms(total) = 0.10358E+00    rms(broyden)= 0.10358E+00
  rms(prec ) = 0.10780E+00
  weight for this iteration     100.00

 eigenvalues of (default mixing * dielectric matrix)
  average eigenvalue GAMMA=   0.8658
  1.2694  1.2694  1.4749  1.4749  1.0079  1.0079  0.6859  0.6859  0.4663  1.1313
  0.9317  0.7363  0.7363  0.6676  0.6676  0.5290  0.5913  0.2509

 Free energy of the ion-electron system (eV)
  ---------------------------------------------------
  alpha Z        PSCENC =         0.38173879
  Ewald energy   TEWEN  =      -136.56163451
  -Hartree energ DENC   =      -728.43458786
  -exchange      EXHF   =         0.00000000
  -V(xc)+E(xc)   XCENC  =        24.75942987
  PAW double counting   =       871.88012609     -856.04007965
  entropy T*S    EENTRO =        -0.02150103
  eigenvalues    EBANDS =      -222.44020700
  atomic energy  EATOM  =      1043.39062137
  Solvation  Ediel_sol  =         0.00000000
  ---------------------------------------------------
  free energy    TOTEN  =        -3.08609395 eV

  energy without entropy =       -3.06459291  energy(sigma->0) =       -3.07534343


--------------------------------------------------------------------------------------------------------




--------------------------------------- Iteration      1(  24)  ---------------------------------------


    POTLOK:  cpu time      0.5829: real time      0.5874
    SETDIJ:  cpu time      0.4546: real time      0.4568
     EDDAV:  cpu time      0.1496: real time      0.1511
       DOS:  cpu time      0.0003: real time      0.0003
    CHARGE:  cpu time      0.0435: real time      0.0440
    MIXING:  cpu time      0.0136: real time      0.0137
    --------------------------------------------
      LOOP:  cpu time      1.2446: real time      1.2534

 eigenvalue-minimisations  :    56
 total energy-change (2. order) :-0.3723124E-01  (-0.1473661E-02)
 number of electron      10.9999996 magnetization       4.9999999
 augmentation part        4.1172683 magnetization       0.8430778

 Broyden mixing:
  rms(total) = 0.53030E-01    rms(broyden)= 0.53029E-01
  rms(prec ) = 0.55211E-01
  weight for this iteration     100.00

 eigenvalues of (default mixing * dielectric matrix)
  average eigenvalue GAMMA=   0.9035
  2.0529  1.2570  1.2570  1.0112  1.0112  0.6862  0.6862  1.4357  1.4357  0.4663
  0.7374  0.7374  0.8922  0.8330  0.5296  0.6379  0.6379  0.6114  0.2509

 Free energy of the ion-electron system (eV)
  ---------------------------------------------------
  alpha Z        PSCENC =         0.38173879
  Ewald energy   TEWEN  =      -136.56163451
  -Hartree energ DENC   =      -728.72562440
  -exchange      EXHF   =         0.00000000
  -V(xc)+E(xc)   XCENC  =        24.74562966
  PAW double counting   =       870.81581599     -854.97848272
  entropy T*S    EENTRO =        -0.02482872
  eigenvalues    EBANDS =      -222.16656064
  atomic energy  EATOM  =      1043.39062137
  Solvation  Ediel_sol  =         0.00000000
  ---------------------------------------------------
  free energy    TOTEN  =        -3.12332518 eV

  energy without entropy =       -3.09849647  energy(sigma->0) =       -3.11091083


--------------------------------------------------------------------------------------------------------




--------------------------------------- Iteration      1(  25)  ---------------------------------------


    POTLOK:  cpu time      0.7594: real time      0.7652
    SETDIJ:  cpu time      0.4546: real time      0.4568
     EDDAV:  cpu time      0.1898: real time      0.1915
       DOS:  cpu time      0.0004: real time      0.0004
    CHARGE:  cpu time      0.0439: real time      0.0445
    MIXING:  cpu time      0.0141: real time      0.0144
    --------------------------------------------
      LOOP:  cpu time      1.4620: real time      1.4727

 eigenvalue-minimisations  :    76
 total energy-change (2. order) :-0.7601076E-02  (-0.2590576E-03)
 number of electron      10.9999996 magnetization       4.9999999
 augmentation part        4.1168920 magnetization       0.8429687

 Broyden mixing:
  rms(total) = 0.24011E-01    rms(broyden)= 0.24011E-01
  rms(prec ) = 0.25036E-01
  weight for this iteration     100.00

 eigenvalues of (default mixing * dielectric matrix)
  average eigenvalue GAMMA=   0.9151
  2.3479  1.2537  1.2537  1.0114  1.0114  0.6864  0.6864  0.4663  1.4138  1.4138
  0.2509  0.8260  0.8260  0.8696  0.8696  0.7015  0.6494  0.6494  0.5273  0.5883

 Free energy of the ion-electron system (eV)
  ---------------------------------------------------
  alpha Z        PSCENC =         0.38173879
  Ewald energy   TEWEN  =      -136.56163451
  -Hartree energ DENC   =      -728.84902070
  -exchange      EXHF   =         0.00000000
  -V(xc)+E(xc)   XCENC  =        24.74544524
  PAW double counting   =       870.08733451     -854.25036100
  entropy T*S    EENTRO =        -0.02709960
  eigenvalues    EBANDS =      -222.04795035
  atomic energy  EATOM  =      1043.39062137
  Solvation  Ediel_sol  =         0.00000000
  ---------------------------------------------------
  free energy    TOTEN  =        -3.13092626 eV

  energy without entropy =       -3.10382666  energy(sigma->0) =       -3.11737646


--------------------------------------------------------------------------------------------------------




--------------------------------------- Iteration      1(  26)  ---------------------------------------


    POTLOK:  cpu time      0.5755: real time      0.5798
    SETDIJ:  cpu time      0.4552: real time      0.4575
     EDDAV:  cpu time      0.1688: real time      0.1704
       DOS:  cpu time      0.0003: real time      0.0003
    CHARGE:  cpu time      0.0451: real time      0.0455
    MIXING:  cpu time      0.0142: real time      0.0143
    --------------------------------------------
      LOOP:  cpu time      1.2592: real time      1.2678

 eigenvalue-minimisations  :    64
 total energy-change (2. order) :-0.6367152E-02  (-0.8760631E-04)
 number of electron      10.9999996 magnetization       4.9999999
 augmentation part        4.1172088 magnetization       0.8433170

 Broyden mixing:
  rms(total) = 0.10808E-01    rms(broyden)= 0.10808E-01
  rms(prec ) = 0.11384E-01
  weight for this iteration     100.00

 eigenvalues of (default mixing * dielectric matrix)
  average eigenvalue GAMMA=   0.9575
  2.3103  2.3103  1.2522  1.2522  1.0110  1.0110  0.6864  0.6864  0.4663  1.2579
  1.2579  0.2509  0.7659  0.7659  0.9054  0.8585  0.6651  0.6651  0.5306  0.6126
  0.5853

 Free energy of the ion-electron system (eV)
  ---------------------------------------------------
  alpha Z        PSCENC =         0.38173879
  Ewald energy   TEWEN  =      -136.56163451
  -Hartree energ DENC   =      -728.86497201
  -exchange      EXHF   =         0.00000000
  -V(xc)+E(xc)   XCENC  =        24.74085888
  PAW double counting   =       869.55743198     -853.72177255
  entropy T*S    EENTRO =        -0.02790599
  eigenvalues    EBANDS =      -222.03165937
  atomic energy  EATOM  =      1043.39062137
  Solvation  Ediel_sol  =         0.00000000
  ---------------------------------------------------
  free energy    TOTEN  =        -3.13729341 eV

  energy without entropy =       -3.10938742  energy(sigma->0) =       -3.12334042


--------------------------------------------------------------------------------------------------------




--------------------------------------- Iteration      1(  27)  ---------------------------------------


    POTLOK:  cpu time      0.5933: real time      0.5978
    SETDIJ:  cpu time      0.4552: real time      0.4575
     EDDAV:  cpu time      0.1492: real time      0.1507
       DOS:  cpu time      0.0003: real time      0.0003
    CHARGE:  cpu time      0.0445: real time      0.0449
    MIXING:  cpu time      0.0144: real time      0.0145
    --------------------------------------------
      LOOP:  cpu time      1.2570: real time      1.2658

 eigenvalue-minimisations  :    56
 total energy-change (2. order) :-0.1260030E-01  (-0.1574291E-03)
 number of electron      10.9999996 magnetization       4.9999999
 augmentation part        4.1173193 magnetization       0.8438989

 Broyden mixing:
  rms(total) = 0.97550E-02    rms(broyden)= 0.97545E-02
  rms(prec ) = 0.10083E-01
  weight for this iteration     100.00

 eigenvalues of (default mixing * dielectric matrix)
  average eigenvalue GAMMA=   0.9856
  2.5760  2.5760  1.2520  1.2520  1.0110  1.0110  1.3946  1.3946  0.6864  0.6864
  0.4663  0.2509  0.7818  0.7818  0.8890  0.8890  0.7229  0.7229  0.5968  0.5968
  0.6167  0.5278

 Free energy of the ion-electron system (eV)
  ---------------------------------------------------
  alpha Z        PSCENC =         0.38173879
  Ewald energy   TEWEN  =      -136.56163451
  -Hartree energ DENC   =      -728.89432450
  -exchange      EXHF   =         0.00000000
  -V(xc)+E(xc)   XCENC  =        24.73226566
  PAW double counting   =       868.85888306     -853.02299285
  entropy T*S    EENTRO =        -0.02872321
  eigenvalues    EBANDS =      -222.00572753
  atomic energy  EATOM  =      1043.39062137
  Solvation  Ediel_sol  =         0.00000000
  ---------------------------------------------------
  free energy    TOTEN  =        -3.14989372 eV

  energy without entropy =       -3.12117050  energy(sigma->0) =       -3.13553211


--------------------------------------------------------------------------------------------------------




--------------------------------------- Iteration      1(  28)  ---------------------------------------


    POTLOK:  cpu time      0.5742: real time      0.5779
    SETDIJ:  cpu time      0.4553: real time      0.4575
     EDDAV:  cpu time      0.1440: real time      0.1453
       DOS:  cpu time      0.0003: real time      0.0003
    CHARGE:  cpu time      0.0457: real time      0.0464
    MIXING:  cpu time      0.0144: real time      0.0145
    --------------------------------------------
      LOOP:  cpu time      1.2339: real time      1.2419

 eigenvalue-minimisations  :    52
 total energy-change (2. order) :-0.8969416E-02  (-0.8060503E-04)
 number of electron      10.9999996 magnetization       4.9999999
 augmentation part        4.1174091 magnetization       0.8443623

 Broyden mixing:
  rms(total) = 0.61534E-02    rms(broyden)= 0.61533E-02
  rms(prec ) = 0.63692E-02
  weight for this iteration     100.00

 eigenvalues of (default mixing * dielectric matrix)
  average eigenvalue GAMMA=   1.0095
  2.7574  2.7574  1.2519  1.2519  1.0109  1.0109  1.4625  1.4625  0.6864  0.6864
  0.4663  0.2509  1.0535  0.8862  0.8862  0.7897  0.7897  0.6846  0.6846  0.5291
  0.6555  0.6213  0.5817

 Free energy of the ion-electron system (eV)
  ---------------------------------------------------
  alpha Z        PSCENC =         0.38173879
  Ewald energy   TEWEN  =      -136.56163451
  -Hartree energ DENC   =      -728.90934349
  -exchange      EXHF   =         0.00000000
  -V(xc)+E(xc)   XCENC  =        24.72454249
  PAW double counting   =       868.48902895     -852.65305351
  entropy T*S    EENTRO =        -0.02859107
  eigenvalues    EBANDS =      -221.99217214
  atomic energy  EATOM  =      1043.39062137
  Solvation  Ediel_sol  =         0.00000000
  ---------------------------------------------------
  free energy    TOTEN  =        -3.15886313 eV

  energy without entropy =       -3.13027206  energy(sigma->0) =       -3.14456760


--------------------------------------------------------------------------------------------------------




--------------------------------------- Iteration      1(  29)  ---------------------------------------


    POTLOK:  cpu time      0.5791: real time      0.5833
    SETDIJ:  cpu time      0.4556: real time      0.4578
     EDDAV:  cpu time      0.1491: real time      0.1507
       DOS:  cpu time      0.0003: real time      0.0003
    CHARGE:  cpu time      0.0447: real time      0.0452
    MIXING:  cpu time      0.0150: real time      0.0151
    --------------------------------------------
      LOOP:  cpu time      1.2439: real time      1.2523

 eigenvalue-minimisations  :    56
 total energy-change (2. order) :-0.5168325E-02  (-0.3448303E-04)
 number of electron      10.9999996 magnetization       4.9999999
 augmentation part        4.1174715 magnetization       0.8445879

 Broyden mixing:
  rms(total) = 0.33941E-02    rms(broyden)= 0.33940E-02
  rms(prec ) = 0.35541E-02
  weight for this iteration     100.00

 eigenvalues of (default mixing * dielectric matrix)
  average eigenvalue GAMMA=   1.0208
  2.8134  2.8134  1.2519  1.2519  1.0110  1.0110  1.5131  1.5131  0.6864  0.6864
  0.4663  0.2509  1.1259  1.0309  1.0309  0.7659  0.7659  0.7704  0.7034  0.7034
  0.5285  0.6216  0.5922  0.5922

 Free energy of the ion-electron system (eV)
  ---------------------------------------------------
  alpha Z        PSCENC =         0.38173879
  Ewald energy   TEWEN  =      -136.56163451
  -Hartree energ DENC   =      -728.93807386
  -exchange      EXHF   =         0.00000000
  -V(xc)+E(xc)   XCENC  =        24.72049253
  PAW double counting   =       868.23537713     -852.39907219
  entropy T*S    EENTRO =        -0.02859280
  eigenvalues    EBANDS =      -221.96488792
  atomic energy  EATOM  =      1043.39062137
  Solvation  Ediel_sol  =         0.00000000
  ---------------------------------------------------
  free energy    TOTEN  =        -3.16403146 eV

  energy without entropy =       -3.13543866  energy(sigma->0) =       -3.14973506


--------------------------------------------------------------------------------------------------------




--------------------------------------- Iteration      1(  30)  ---------------------------------------


    POTLOK:  cpu time      0.5843: real time      0.5886
    SETDIJ:  cpu time      0.4553: real time      0.4577
     EDDAV:  cpu time      0.1550: real time      0.1566
       DOS:  cpu time      0.0003: real time      0.0003
    CHARGE:  cpu time      0.0444: real time      0.0450
    MIXING:  cpu time      0.0153: real time      0.0155
    --------------------------------------------
      LOOP:  cpu time      1.2547: real time      1.2635

 eigenvalue-minimisations  :    60
 total energy-change (2. order) :-0.2237567E-02  (-0.8146444E-05)
 number of electron      10.9999996 magnetization       4.9999999
 augmentation part        4.1174663 magnetization       0.8446541

 Broyden mixing:
  rms(total) = 0.21850E-02    rms(broyden)= 0.21849E-02
  rms(prec ) = 0.23338E-02
  weight for this iteration     100.00

 eigenvalues of (default mixing * dielectric matrix)
  average eigenvalue GAMMA=   1.0447
  2.9916  2.9916  1.2519  1.2519  1.0110  1.0110  1.6700  1.6700  0.6864  0.6864
  0.4663  1.2230  1.2230  0.2509  0.8926  0.8926  0.7794  0.7794  0.7531  0.6576
  0.6576  0.5288  0.5994  0.5994  0.5932

 Free energy of the ion-electron system (eV)
  ---------------------------------------------------
  alpha Z        PSCENC =         0.38173879
  Ewald energy   TEWEN  =      -136.56163451
  -Hartree energ DENC   =      -728.95682400
  -exchange      EXHF   =         0.00000000
  -V(xc)+E(xc)   XCENC  =        24.71903163
  PAW double counting   =       868.21340893     -852.37679769
  entropy T*S    EENTRO =        -0.02860948
  eigenvalues    EBANDS =      -221.94720405
  atomic energy  EATOM  =      1043.39062137
  Solvation  Ediel_sol  =         0.00000000
  ---------------------------------------------------
  free energy    TOTEN  =        -3.16626903 eV

  energy without entropy =       -3.13765954  energy(sigma->0) =       -3.15196428


--------------------------------------------------------------------------------------------------------




--------------------------------------- Iteration      1(  31)  ---------------------------------------


    POTLOK:  cpu time      0.5817: real time      0.5859
    SETDIJ:  cpu time      0.4559: real time      0.4582
     EDDAV:  cpu time      0.1688: real time      0.1705
       DOS:  cpu time      0.0004: real time      0.0004
    CHARGE:  cpu time      0.0450: real time      0.0455
    MIXING:  cpu time      0.0154: real time      0.0155
    --------------------------------------------
      LOOP:  cpu time      1.2672: real time      1.2761

 eigenvalue-minimisations  :    64
 total energy-change (2. order) :-0.3694211E-02  (-0.2254770E-04)
 number of electron      10.9999996 magnetization       4.9999999
 augmentation part        4.1173486 magnetization       0.8446906

 Broyden mixing:
  rms(total) = 0.13633E-02    rms(broyden)= 0.13631E-02
  rms(prec ) = 0.14598E-02
  weight for this iteration     100.00

 eigenvalues of (default mixing * dielectric matrix)
  average eigenvalue GAMMA=   1.0553
  3.2827  2.5581  1.9358  1.9358  1.2519  1.2519  1.0110  1.0110  0.6864  0.6864
  0.4663  1.3134  1.3134  0.2509  0.9628  0.9628  0.7802  0.7802  0.7248  0.7248
  0.6426  0.6426  0.6257  0.5281  0.5545  0.5545

 Free energy of the ion-electron system (eV)
  ---------------------------------------------------
  alpha Z        PSCENC =         0.38173879
  Ewald energy   TEWEN  =      -136.56163451
  -Hartree energ DENC   =      -728.99600984
  -exchange      EXHF   =         0.00000000
  -V(xc)+E(xc)   XCENC  =        24.71670002
  PAW double counting   =       868.04062269     -852.20307922
  entropy T*S    EENTRO =        -0.02854628
  eigenvalues    EBANDS =      -221.91037624
  atomic energy  EATOM  =      1043.39062137
  Solvation  Ediel_sol  =         0.00000000
  ---------------------------------------------------
  free energy    TOTEN  =        -3.16996324 eV

  energy without entropy =       -3.14141695  energy(sigma->0) =       -3.15569009


--------------------------------------------------------------------------------------------------------




--------------------------------------- Iteration      1(  32)  ---------------------------------------


    POTLOK:  cpu time      0.5848: real time      0.5892
    SETDIJ:  cpu time      0.4558: real time      0.4582
     EDDAV:  cpu time      0.1346: real time      0.1359
       DOS:  cpu time      0.0003: real time      0.0003
    CHARGE:  cpu time      0.0489: real time      0.0495
    MIXING:  cpu time      0.0157: real time      0.0158
    --------------------------------------------
      LOOP:  cpu time      1.2401: real time      1.2489

 eigenvalue-minimisations  :    48
 total energy-change (2. order) :-0.1454979E-02  (-0.6102037E-05)
 number of electron      10.9999996 magnetization       4.9999999
 augmentation part        4.1173365 magnetization       0.8447556

 Broyden mixing:
  rms(total) = 0.15932E-02    rms(broyden)= 0.15931E-02
  rms(prec ) = 0.16510E-02
  weight for this iteration     100.00

 eigenvalues of (default mixing * dielectric matrix)
  average eigenvalue GAMMA=   1.0919
  4.0116  2.3237  2.1705  2.1705  1.2519  1.2519  1.0110  1.0110  0.6864  0.6864
  0.4663  1.4118  1.4118  0.2509  1.0121  1.0121  0.7744  0.7744  0.7604  0.7604
  0.7293  0.6393  0.6393  0.6214  0.5280  0.5566  0.5566

 Free energy of the ion-electron system (eV)
  ---------------------------------------------------
  alpha Z        PSCENC =         0.38173879
  Ewald energy   TEWEN  =      -136.56163451
  -Hartree energ DENC   =      -729.01202781
  -exchange      EXHF   =         0.00000000
  -V(xc)+E(xc)   XCENC  =        24.71566892
  PAW double counting   =       868.04655066     -852.20889970
  entropy T*S    EENTRO =        -0.02856110
  eigenvalues    EBANDS =      -221.89487483
  atomic energy  EATOM  =      1043.39062137
  Solvation  Ediel_sol  =         0.00000000
  ---------------------------------------------------
  free energy    TOTEN  =        -3.17141821 eV

  energy without entropy =       -3.14285711  energy(sigma->0) =       -3.15713766


--------------------------------------------------------------------------------------------------------




--------------------------------------- Iteration      1(  33)  ---------------------------------------


    POTLOK:  cpu time      0.5948: real time      0.5993
    SETDIJ:  cpu time      0.4558: real time      0.4580
     EDDAV:  cpu time      0.1287: real time      0.1301
       DOS:  cpu time      0.0004: real time      0.0004
    CHARGE:  cpu time      0.0461: real time      0.0467
    MIXING:  cpu time      0.0159: real time      0.0160
    --------------------------------------------
      LOOP:  cpu time      1.2417: real time      1.2505

 eigenvalue-minimisations  :    44
 total energy-change (2. order) :-0.9128563E-03  (-0.2993165E-05)
 number of electron      10.9999996 magnetization       4.9999999
 augmentation part        4.1173237 magnetization       0.8447618

 Broyden mixing:
  rms(total) = 0.13866E-02    rms(broyden)= 0.13866E-02
  rms(prec ) = 0.14267E-02
  weight for this iteration     100.00

 eigenvalues of (default mixing * dielectric matrix)
  average eigenvalue GAMMA=   1.0918
  4.2585  2.4858  2.4858  1.2519  1.2519  1.0110  1.0110  1.8723  0.6864  0.6864
  0.4663  1.4587  1.4587  0.2509  1.0525  1.0525  0.7789  0.7789  0.7813  0.7813
  0.7075  0.6617  0.6617  0.5286  0.6100  0.5775  0.5775  0.3845

 Free energy of the ion-electron system (eV)
  ---------------------------------------------------
  alpha Z        PSCENC =         0.38173879
  Ewald energy   TEWEN  =      -136.56163451
  -Hartree energ DENC   =      -729.02306472
  -exchange      EXHF   =         0.00000000
  -V(xc)+E(xc)   XCENC  =        24.71491850
  PAW double counting   =       868.01280123     -852.17501163
  entropy T*S    EENTRO =        -0.02852889
  eigenvalues    EBANDS =      -221.88417121
  atomic energy  EATOM  =      1043.39062137
  Solvation  Ediel_sol  =         0.00000000
  ---------------------------------------------------
  free energy    TOTEN  =        -3.17233107 eV

  energy without entropy =       -3.14380218  energy(sigma->0) =       -3.15806663


--------------------------------------------------------------------------------------------------------




--------------------------------------- Iteration      1(  34)  ---------------------------------------


    POTLOK:  cpu time      0.5966: real time      0.6018
    SETDIJ:  cpu time      0.4559: real time      0.4583
     EDDAV:  cpu time      0.1597: real time      0.1613
       DOS:  cpu time      0.0003: real time      0.0003
    CHARGE:  cpu time      0.0447: real time      0.0453
    MIXING:  cpu time      0.0164: real time      0.0166
    --------------------------------------------
      LOOP:  cpu time      1.2737: real time      1.2836

 eigenvalue-minimisations  :    60
 total energy-change (2. order) :-0.2280503E-03  (-0.3228552E-06)
 number of electron      10.9999996 magnetization       4.9999999
 augmentation part        4.1173549 magnetization       0.8447714

 Broyden mixing:
  rms(total) = 0.11012E-02    rms(broyden)= 0.11012E-02
  rms(prec ) = 0.11352E-02
  weight for this iteration     100.00

 eigenvalues of (default mixing * dielectric matrix)
  average eigenvalue GAMMA=   1.1088
  4.7759  2.6500  2.1305  2.1305  1.2519  1.2519  1.0110  1.0110  0.6864  0.6864
  0.4663  1.4846  1.4846  0.2509  1.1320  1.1320  0.7822  0.7822  0.8365  0.8365
  0.7092  0.7092  0.7055  0.5956  0.5956  0.6097  0.5288  0.5507  0.3769

 Free energy of the ion-electron system (eV)
  ---------------------------------------------------
  alpha Z        PSCENC =         0.38173879
  Ewald energy   TEWEN  =      -136.56163451
  -Hartree energ DENC   =      -729.02463732
  -exchange      EXHF   =         0.00000000
  -V(xc)+E(xc)   XCENC  =        24.71469579
  PAW double counting   =       868.04068813     -852.20295167
  entropy T*S    EENTRO =        -0.02852862
  eigenvalues    EBANDS =      -221.88255108
  atomic energy  EATOM  =      1043.39062137
  Solvation  Ediel_sol  =         0.00000000
  ---------------------------------------------------
  free energy    TOTEN  =        -3.17255912 eV

  energy without entropy =       -3.14403050  energy(sigma->0) =       -3.15829481


--------------------------------------------------------------------------------------------------------




--------------------------------------- Iteration      1(  35)  ---------------------------------------


    POTLOK:  cpu time      0.5854: real time      0.5906
    SETDIJ:  cpu time      0.4555: real time      0.4578
     EDDAV:  cpu time      0.1291: real time      0.1305
       DOS:  cpu time      0.0003: real time      0.0003
    CHARGE:  cpu time      0.0471: real time      0.0477
    MIXING:  cpu time      0.0170: real time      0.0170
    --------------------------------------------
      LOOP:  cpu time      1.2344: real time      1.2440

 eigenvalue-minimisations  :    44
 total energy-change (2. order) :-0.2959135E-03  (-0.3434958E-06)
 number of electron      10.9999996 magnetization       4.9999999
 augmentation part        4.1173419 magnetization       0.8447647

 Broyden mixing:
  rms(total) = 0.47195E-03    rms(broyden)= 0.47190E-03
  rms(prec ) = 0.49335E-03
  weight for this iteration     100.00

 eigenvalues of (default mixing * dielectric matrix)
  average eigenvalue GAMMA=   1.1285
  5.2165  2.9004  2.1531  2.1531  1.2519  1.2519  1.0110  1.0110  0.6864  0.6864
  0.4663  1.4568  1.4568  1.2766  1.2766  0.2509  0.9083  0.9083  0.7771  0.7771
  0.7399  0.7399  0.6676  0.6184  0.6184  0.6254  0.5282  0.5592  0.5592  0.3226

 Free energy of the ion-electron system (eV)
  ---------------------------------------------------
  alpha Z        PSCENC =         0.38173879
  Ewald energy   TEWEN  =      -136.56163451
  -Hartree energ DENC   =      -729.02870928
  -exchange      EXHF   =         0.00000000
  -V(xc)+E(xc)   XCENC  =        24.71445910
  PAW double counting   =       868.04248736     -852.20470808
  entropy T*S    EENTRO =        -0.02854753
  eigenvalues    EBANDS =      -221.87856225
  atomic energy  EATOM  =      1043.39062137
  Solvation  Ediel_sol  =         0.00000000
  ---------------------------------------------------
  free energy    TOTEN  =        -3.17285503 eV

  energy without entropy =       -3.14430750  energy(sigma->0) =       -3.15858127


--------------------------------------------------------------------------------------------------------




--------------------------------------- Iteration      1(  36)  ---------------------------------------


    POTLOK:  cpu time      0.5688: real time      0.5733
    SETDIJ:  cpu time      0.4557: real time      0.4580
     EDDAV:  cpu time      0.1491: real time      0.1506
       DOS:  cpu time      0.0003: real time      0.0003
    CHARGE:  cpu time      0.0451: real time      0.0457
    MIXING:  cpu time      0.0168: real time      0.0170
    --------------------------------------------
      LOOP:  cpu time      1.2359: real time      1.2449

 eigenvalue-minimisations  :    56
 total energy-change (2. order) :-0.1331083E-03  (-0.1708381E-06)
 number of electron      10.9999996 magnetization       4.9999999
 augmentation part        4.1173619 magnetization       0.8447809

 Broyden mixing:
  rms(total) = 0.23847E-03    rms(broyden)= 0.23842E-03
  rms(prec ) = 0.25801E-03
  weight for this iteration     100.00

 eigenvalues of (default mixing * dielectric matrix)
  average eigenvalue GAMMA=   1.1417
  5.7246  2.9683  2.1761  2.1761  1.2519  1.2519  1.0110  1.0110  0.6864  0.6864
  0.4663  1.4757  1.4757  1.3352  1.3352  0.2509  0.9220  0.9220  0.7746  0.7746
  0.7882  0.7882  0.6627  0.6627  0.6304  0.6304  0.5284  0.5723  0.5723  0.5645
  0.3154

 Free energy of the ion-electron system (eV)
  ---------------------------------------------------
  alpha Z        PSCENC =         0.38173879
  Ewald energy   TEWEN  =      -136.56163451
  -Hartree energ DENC   =      -729.03071731
  -exchange      EXHF   =         0.00000000
  -V(xc)+E(xc)   XCENC  =        24.71436522
  PAW double counting   =       868.05471841     -852.21691338
  entropy T*S    EENTRO =        -0.02855579
  eigenvalues    EBANDS =      -221.87661094
  atomic energy  EATOM  =      1043.39062137
  Solvation  Ediel_sol  =         0.00000000
  ---------------------------------------------------
  free energy    TOTEN  =        -3.17298814 eV

  energy without entropy =       -3.14443235  energy(sigma->0) =       -3.15871025


--------------------------------------------------------------------------------------------------------




--------------------------------------- Iteration      1(  37)  ---------------------------------------


    POTLOK:  cpu time      0.5905: real time      0.5952
    SETDIJ:  cpu time      0.4563: real time      0.4585
     EDDAV:  cpu time      0.1290: real time      0.1304
       DOS:  cpu time      0.0004: real time      0.0004
    CHARGE:  cpu time      0.0457: real time      0.0463
    MIXING:  cpu time      0.0173: real time      0.0174
    --------------------------------------------
      LOOP:  cpu time      1.2392: real time      1.2481

 eigenvalue-minimisations  :    44
 total energy-change (2. order) :-0.1038401E-03  (-0.6507375E-07)
 number of electron      10.9999996 magnetization       4.9999999
 augmentation part        4.1173397 magnetization       0.8447622

 Broyden mixing:
  rms(total) = 0.32845E-03    rms(broyden)= 0.32844E-03
  rms(prec ) = 0.34188E-03
  weight for this iteration     100.00

 eigenvalues of (default mixing * dielectric matrix)
  average eigenvalue GAMMA=   1.1664
  6.2413  2.9892  2.2881  1.2519  1.2519  1.0110  1.0110  1.9535  1.9535  0.6864
  0.6864  0.4663  1.4748  1.4748  1.4682  0.2509  1.0189  1.0189  0.7778  0.7778
  0.7998  0.7998  0.6823  0.6823  0.6647  0.6248  0.5930  0.5930  0.5301  0.5301
  0.4720  0.3007

 Free energy of the ion-electron system (eV)
  ---------------------------------------------------
  alpha Z        PSCENC =         0.38173879
  Ewald energy   TEWEN  =      -136.56163451
  -Hartree energ DENC   =      -729.03339102
  -exchange      EXHF   =         0.00000000
  -V(xc)+E(xc)   XCENC  =        24.71433157
  PAW double counting   =       868.04884420     -852.21093308
  entropy T*S    EENTRO =        -0.02855813
  eigenvalues    EBANDS =      -221.87411117
  atomic energy  EATOM  =      1043.39062137
  Solvation  Ediel_sol  =         0.00000000
  ---------------------------------------------------
  free energy    TOTEN  =        -3.17309198 eV

  energy without entropy =       -3.14453385  energy(sigma->0) =       -3.15881292


--------------------------------------------------------------------------------------------------------




--------------------------------------- Iteration      1(  38)  ---------------------------------------


    POTLOK:  cpu time      0.5617: real time      0.5664
    SETDIJ:  cpu time      0.4555: real time      0.4577
     EDDAV:  cpu time      0.1237: real time      0.1249
       DOS:  cpu time      0.0004: real time      0.0004
    CHARGE:  cpu time      0.0458: real time      0.0464
    MIXING:  cpu time      0.0178: real time      0.0179
    --------------------------------------------
      LOOP:  cpu time      1.2049: real time      1.2137

 eigenvalue-minimisations  :    40
 total energy-change (2. order) :-0.6410164E-04  (-0.4549349E-07)
 number of electron      10.9999996 magnetization       4.9999999
 augmentation part        4.1173520 magnetization       0.8447745

 Broyden mixing:
  rms(total) = 0.19097E-03    rms(broyden)= 0.19097E-03
  rms(prec ) = 0.20008E-03
  weight for this iteration     100.00

 eigenvalues of (default mixing * dielectric matrix)
  average eigenvalue GAMMA=   1.2087
  6.9833  3.0370  2.4804  2.2573  2.2573  1.2519  1.2519  1.0110  1.0110  1.7704
  0.6864  0.6864  0.4663  1.4269  1.4269  0.2509  1.0368  1.0368  0.7793  0.7793
  0.8015  0.8015  0.7202  0.7202  0.7203  0.6132  0.6132  0.6037  0.5287  0.5549
  0.5549  0.4674  0.3014

 Free energy of the ion-electron system (eV)
  ---------------------------------------------------
  alpha Z        PSCENC =         0.38173879
  Ewald energy   TEWEN  =      -136.56163451
  -Hartree energ DENC   =      -729.03465187
  -exchange      EXHF   =         0.00000000
  -V(xc)+E(xc)   XCENC  =        24.71428964
  PAW double counting   =       868.05717922     -852.21920446
  entropy T*S    EENTRO =        -0.02854889
  eigenvalues    EBANDS =      -221.87294538
  atomic energy  EATOM  =      1043.39062137
  Solvation  Ediel_sol  =         0.00000000
  ---------------------------------------------------
  free energy    TOTEN  =        -3.17315608 eV

  energy without entropy =       -3.14460720  energy(sigma->0) =       -3.15888164


--------------------------------------------------------------------------------------------------------




--------------------------------------- Iteration      1(  39)  ---------------------------------------


    POTLOK:  cpu time      0.5677: real time      0.5717
    SETDIJ:  cpu time      0.4557: real time      0.4580
     EDDAV:  cpu time      0.1349: real time      0.1361
       DOS:  cpu time      0.0003: real time      0.0003
    CHARGE:  cpu time      0.0473: real time      0.0479
    MIXING:  cpu time      0.0182: real time      0.0183
    --------------------------------------------
      LOOP:  cpu time      1.2241: real time      1.2323

 eigenvalue-minimisations  :    48
 total energy-change (2. order) :-0.4406437E-04  (-0.4031521E-07)
 number of electron      10.9999996 magnetization       4.9999999
 augmentation part        4.1173334 magnetization       0.8447547

 Broyden mixing:
  rms(total) = 0.14576E-03    rms(broyden)= 0.14575E-03
  rms(prec ) = 0.15250E-03
  weight for this iteration     100.00

 eigenvalues of (default mixing * dielectric matrix)
  average eigenvalue GAMMA=   1.3063
  8.4362  3.3874  2.9851  2.9851  2.8053  1.2519  1.2519  1.0110  1.0110  1.7571
  0.6864  0.6864  0.4663  1.4409  1.4409  0.2509  1.1312  1.1312  0.8935  0.8935
  0.7778  0.7778  0.7434  0.7434  0.6375  0.6375  0.6658  0.6062  0.5835  0.5835
  0.5276  0.5343  0.3967  0.2969

 Free energy of the ion-electron system (eV)
  ---------------------------------------------------
  alpha Z        PSCENC =         0.38173879
  Ewald energy   TEWEN  =      -136.56163451
  -Hartree energ DENC   =      -729.03555024
  -exchange      EXHF   =         0.00000000
  -V(xc)+E(xc)   XCENC  =        24.71428042
  PAW double counting   =       868.04921939     -852.21116992
  entropy T*S    EENTRO =        -0.02854899
  eigenvalues    EBANDS =      -221.87215646
  atomic energy  EATOM  =      1043.39062137
  Solvation  Ediel_sol  =         0.00000000
  ---------------------------------------------------
  free energy    TOTEN  =        -3.17320015 eV

  energy without entropy =       -3.14465116  energy(sigma->0) =       -3.15892566


--------------------------------------------------------------------------------------------------------




--------------------------------------- Iteration      1(  40)  ---------------------------------------


    POTLOK:  cpu time      0.5754: real time      0.5797
    SETDIJ:  cpu time      0.4566: real time      0.4588
     EDDAV:  cpu time      0.1281: real time      0.1294
       DOS:  cpu time      0.0004: real time      0.0004
    CHARGE:  cpu time      0.0451: real time      0.0456
    MIXING:  cpu time      0.0184: real time      0.0186
    --------------------------------------------
      LOOP:  cpu time      1.2240: real time      1.2325

 eigenvalue-minimisations  :    44
 total energy-change (2. order) :-0.3149291E-04  (-0.6022254E-07)
 number of electron      10.9999996 magnetization       4.9999999
 augmentation part        4.1173512 magnetization       0.8447687

 Broyden mixing:
  rms(total) = 0.21974E-03    rms(broyden)= 0.21973E-03
  rms(prec ) = 0.22576E-03
  weight for this iteration     100.00

 eigenvalues of (default mixing * dielectric matrix)
  average eigenvalue GAMMA=   1.3408
  9.4849  3.7396  3.1498  3.1498  2.5630  2.1065  1.2519  1.2519  1.0110  1.0110
  0.6864  0.6864  0.4663  1.4293  1.4293  0.2509  1.1692  1.1692  0.9025  0.9025
  0.7768  0.7768  0.7400  0.7400  0.6788  0.6788  0.6475  0.6220  0.5866  0.5866
  0.5283  0.5439  0.5439  0.3726  0.2952

 Free energy of the ion-electron system (eV)
  ---------------------------------------------------
  alpha Z        PSCENC =         0.38173879
  Ewald energy   TEWEN  =      -136.56163451
  -Hartree energ DENC   =      -729.03489169
  -exchange      EXHF   =         0.00000000
  -V(xc)+E(xc)   XCENC  =        24.71422680
  PAW double counting   =       868.04971149     -852.21163333
  entropy T*S    EENTRO =        -0.02855292
  eigenvalues    EBANDS =      -221.87281763
  atomic energy  EATOM  =      1043.39062137
  Solvation  Ediel_sol  =         0.00000000
  ---------------------------------------------------
  free energy    TOTEN  =        -3.17323164 eV

  energy without entropy =       -3.14467872  energy(sigma->0) =       -3.15895518


--------------------------------------------------------------------------------------------------------




--------------------------------------- Iteration      1(  41)  ---------------------------------------


    POTLOK:  cpu time      0.5786: real time      0.5829
    SETDIJ:  cpu time      0.4560: real time      0.4582
     EDDAV:  cpu time      0.1286: real time      0.1299
       DOS:  cpu time      0.0003: real time      0.0004
    CHARGE:  cpu time      0.0469: real time      0.0474
    MIXING:  cpu time      0.0186: real time      0.0188
    --------------------------------------------
      LOOP:  cpu time      1.2291: real time      1.2377

 eigenvalue-minimisations  :    44
 total energy-change (2. order) :-0.1656756E-04  (-0.4555258E-07)
 number of electron      10.9999996 magnetization       4.9999999
 augmentation part        4.1173392 magnetization       0.8447545

 Broyden mixing:
  rms(total) = 0.22114E-03    rms(broyden)= 0.22114E-03
  rms(prec ) = 0.22793E-03
  weight for this iteration     100.00

 eigenvalues of (default mixing * dielectric matrix)
  average eigenvalue GAMMA=   1.5093
 13.8259  5.9967  2.9906  2.9906  2.3759  2.3759  1.2519  1.2519  1.0110  1.0110
  0.6864  0.6864  0.4663  1.4117  1.4117  1.2810  1.2810  0.2509  0.9504  0.9504
  0.7777  0.7777  0.7899  0.7899  0.7149  0.7149  0.6168  0.6168  0.6301  0.5688
  0.5688  0.5847  0.5276  0.5471  0.3559  0.2939

 Free energy of the ion-electron system (eV)
  ---------------------------------------------------
  alpha Z        PSCENC =         0.38173879
  Ewald energy   TEWEN  =      -136.56163451
  -Hartree energ DENC   =      -729.03375669
  -exchange      EXHF   =         0.00000000
  -V(xc)+E(xc)   XCENC  =        24.71417277
  PAW double counting   =       868.04085127     -852.20276388
  entropy T*S    EENTRO =        -0.02855731
  eigenvalues    EBANDS =      -221.87392002
  atomic energy  EATOM  =      1043.39062137
  Solvation  Ediel_sol  =         0.00000000
  ---------------------------------------------------
  free energy    TOTEN  =        -3.17324821 eV

  energy without entropy =       -3.14469090  energy(sigma->0) =       -3.15896956


--------------------------------------------------------------------------------------------------------




--------------------------------------- Iteration      1(  42)  ---------------------------------------


    POTLOK:  cpu time      0.5888: real time      0.5931
    SETDIJ:  cpu time      0.4554: real time      0.4579
     EDDAV:  cpu time      0.1289: real time      0.1303
       DOS:  cpu time      0.0003: real time      0.0003
    --------------------------------------------
      LOOP:  cpu time      1.1733: real time      1.1816

 eigenvalue-minimisations  :    44
 total energy-change (2. order) :-0.2902459E-06  (-0.5167570E-07)
 number of electron      10.9999996 magnetization       4.9999999
 augmentation part        4.1173392 magnetization       0.8447545

 Free energy of the ion-electron system (eV)
  ---------------------------------------------------
  alpha Z        PSCENC =         0.38173879
  Ewald energy   TEWEN  =      -136.56163451
  -Hartree energ DENC   =      -729.03220378
  -exchange      EXHF   =         0.00000000
  -V(xc)+E(xc)   XCENC  =        24.71411148
  PAW double counting   =       868.03855151     -852.20047300
  entropy T*S    EENTRO =        -0.02855562
  eigenvalues    EBANDS =      -221.87540472
  atomic energy  EATOM  =      1043.39062137
  Solvation  Ediel_sol  =         0.00000000
  ---------------------------------------------------
  free energy    TOTEN  =        -3.17324850 eV

  energy without entropy =       -3.14469288  energy(sigma->0) =       -3.15897069


--------------------------------------------------------------------------------------------------------




 average (electrostatic) potential at core
  the test charge radii are     1.2125
  (the norm of the test charge is              1.0000)
       1 -43.4780
 
 
 
 E-fermi :  -3.5251     XC(G=0):  -0.1578     alpha+bet : -0.0395

 Fermi energy:        -3.5250646417

 spin component 1

 k-point     1 :       0.0000    0.0000    0.0000
  band No.  band energies     occupation 
      1     -35.0183      1.00000
      2     -34.8296      1.00000
      3     -34.8295      1.00000
      4      -4.4352      1.00000
      5      -3.8188      1.00000
      6      -3.8188      1.00000
      7      -3.5621      0.85237
      8      -3.5620      0.85167
      9      -3.5061      0.29597
     10      -1.3465      0.00000
     11      -1.3079      0.00000
     12      -1.3079      0.00000
 Fermi energy:        -3.5250646417

 spin component 2

 k-point     1 :       0.0000    0.0000    0.0000
  band No.  band energies     occupation 
      1     -32.9348      1.00000
      2     -32.5415      1.00000
      3     -32.5415      1.00000
      4      -1.7888      0.00000
      5      -1.2848      0.00000
      6      -0.8758      0.00000
      7      -0.8751      0.00000
      8      -0.8222      0.00000
      9      -0.8212      0.00000
     10       0.0485      0.00000
     11       0.4310      0.00000
     12       0.4688      0.00000


--------------------------------------------------------------------------------------------------------


 soft charge-density along one line, spin component           1
         0         1         2         3         4         5         6         7         8         9
 total charge-density along one line
 
 soft charge-density along one line, spin component           2
         0         1         2         3         4         5         6         7         8         9
 total charge-density along one line
 
 pseudopotential strength for first ion, spin component:           1
-33.199   0.028  -0.035   9.181  -0.017   0.021  -0.000  -0.000
  0.028 -33.219   0.049  -0.017   9.193  -0.030  -0.000  -0.000
 -0.035   0.049 -33.241   0.021  -0.030   9.207  -0.000  -0.000
  9.181  -0.017   0.021   3.108   0.007  -0.009   0.000   0.000
 -0.017   9.193  -0.030   0.007   3.103   0.012   0.000   0.000
  0.021  -0.030   9.207  -0.009   0.012   3.097   0.000   0.000
 -0.000  -0.000  -0.000   0.000   0.000   0.000  -8.540   0.013
 -0.000  -0.000  -0.000   0.000   0.000   0.000   0.013  -8.534
  0.000  -0.000   0.000  -0.000   0.000  -0.000   0.018   0.007
 -0.000  -0.000  -0.000   0.000   0.000   0.000  -0.004  -0.003
  0.000   0.000  -0.000  -0.000  -0.000   0.000   0.007  -0.018
 -0.000  -0.000  -0.000   0.000   0.000   0.000  -9.819   0.016
 -0.000  -0.000  -0.000   0.000   0.000   0.000   0.016  -9.812
  0.000  -0.000   0.000  -0.000   0.000  -0.000   0.021   0.009
 -0.000  -0.000  -0.000   0.000   0.000   0.000  -0.005  -0.003
  0.000   0.000  -0.000  -0.000  -0.000   0.000   0.008  -0.022
  0.000   0.000   0.000   0.000  -0.000  -0.000   0.011  -0.009
 -0.000  -0.000  -0.000  -0.000   0.000   0.000  -0.024   0.019
 pseudopotential strength for first ion, spin component:           2
-32.192   0.049  -0.061   8.557  -0.031   0.039  -0.000  -0.000
  0.049 -32.227   0.087  -0.031   8.579  -0.056  -0.000  -0.000
 -0.061   0.087 -32.267   0.039  -0.056   8.605  -0.000  -0.000
  8.557  -0.031   0.039   3.248   0.011  -0.013  -0.000   0.000
 -0.031   8.579  -0.056   0.011   3.240   0.019   0.000   0.000
  0.039  -0.056   8.605  -0.013   0.019   3.232   0.000   0.000
 -0.000  -0.000  -0.000  -0.000   0.000   0.000  -8.060   0.028
 -0.000  -0.000  -0.000   0.000   0.000   0.000   0.028  -8.048
  0.000  -0.000   0.000  -0.000   0.000   0.000   0.005   0.001
 -0.000  -0.000  -0.000   0.000  -0.000   0.000   0.044  -0.036
  0.000  -0.000  -0.000  -0.000   0.000   0.000  -0.017   0.011
 -0.000  -0.000  -0.000  -0.000   0.000   0.000  -9.249   0.034
 -0.000  -0.000  -0.000   0.000   0.000   0.000   0.034  -9.233
  0.000  -0.000   0.000  -0.000   0.000   0.000   0.006   0.002
 -0.000  -0.000  -0.000   0.000  -0.000   0.000   0.052  -0.043
  0.000  -0.000  -0.000  -0.000   0.000   0.000  -0.021   0.013
  0.000   0.000  -0.000  -0.000  -0.000  -0.000   0.023  -0.018
 -0.000  -0.000   0.000   0.000   0.000   0.000  -0.051   0.041
 total augmentation occupancy for first ion, spin component:           1
  1.999   0.000  -0.000  -0.000   0.000  -0.000   0.000   0.000  -0.000   0.000  -0.000  -0.000  -0.000   0.000  -0.000   0.000
  0.000   1.999   0.000   0.000  -0.001   0.001  -0.000  -0.000   0.000   0.000   0.000   0.000   0.000   0.000  -0.000  -0.000
 -0.000   0.000   1.999  -0.000   0.001  -0.001  -0.000  -0.000  -0.000   0.000   0.000   0.000   0.000   0.000  -0.000  -0.000
 -0.000   0.000  -0.000   0.000   0.000  -0.000   0.000  -0.000   0.000   0.000   0.000  -0.000  -0.000   0.000  -0.000  -0.000
  0.000  -0.001   0.001   0.000   0.000   0.000   0.000  -0.000   0.000   0.000   0.000  -0.000   0.000  -0.000  -0.000  -0.000
 -0.000   0.001  -0.001  -0.000   0.000   0.000   0.000   0.000  -0.000   0.000   0.000  -0.000  -0.000   0.000  -0.000  -0.000
  0.000  -0.000  -0.000   0.000   0.000   0.000   0.999   0.125  -0.056   0.316  -0.154  -0.103  -0.018   0.004  -0.038   0.017
  0.000  -0.000  -0.000  -0.000  -0.000   0.000   0.125   1.055  -0.028  -0.233   0.165  -0.017  -0.111   0.002   0.029  -0.017
 -0.000   0.000  -0.000   0.000   0.000  -0.000  -0.056  -0.028   1.248  -0.050  -0.034   0.004   0.002  -0.132   0.004   0.002
  0.000   0.000   0.000   0.000   0.000   0.000   0.316  -0.233  -0.050   0.770   0.144  -0.038   0.029   0.004  -0.076  -0.020
 -0.000   0.000   0.000   0.000   0.000   0.000  -0.154   0.165  -0.034   0.144   1.156   0.017  -0.017   0.002  -0.020  -0.121
 -0.000   0.000   0.000  -0.000  -0.000  -0.000  -0.103  -0.017   0.004  -0.038   0.017   0.011   0.002  -0.000   0.004  -0.002
 -0.000   0.000   0.000  -0.000   0.000  -0.000  -0.018  -0.111   0.002   0.029  -0.017   0.002   0.012  -0.000  -0.003   0.002
  0.000   0.000   0.000   0.000  -0.000   0.000   0.004   0.002  -0.132   0.004   0.002  -0.000  -0.000   0.014  -0.000  -0.000
 -0.000  -0.000  -0.000  -0.000  -0.000  -0.000  -0.038   0.029   0.004  -0.076  -0.020   0.004  -0.003  -0.000   0.008   0.002
  0.000  -0.000  -0.000  -0.000  -0.000  -0.000   0.017  -0.017   0.002  -0.020  -0.121  -0.002   0.002  -0.000   0.002   0.013
  0.000  -0.000  -0.000   0.000   0.000   0.000   0.026  -0.021  -0.000  -0.037   0.016  -0.019   0.015   0.000   0.027  -0.012
 -0.000  -0.000  -0.000   0.000   0.000   0.000  -0.001   0.001   0.000   0.002  -0.001   0.000  -0.000  -0.000  -0.000   0.000
 total augmentation occupancy for first ion, spin component:           2
  0.007   0.000  -0.000   0.021   0.000  -0.000   0.000   0.000  -0.000   0.000  -0.000  -0.000  -0.000   0.000  -0.000   0.000
  0.000   0.007   0.000   0.000   0.020   0.000  -0.000  -0.000   0.000   0.000   0.000   0.000   0.000  -0.000  -0.000  -0.000
 -0.000   0.000   0.007  -0.000   0.000   0.020   0.000   0.000  -0.000   0.000   0.000  -0.000  -0.000   0.000  -0.000  -0.000
  0.021   0.000  -0.000  -0.000   0.000  -0.000   0.000  -0.000   0.000   0.000   0.000  -0.000  -0.000  -0.000  -0.000   0.000
  0.000   0.020   0.000   0.000  -0.000   0.000   0.000  -0.000   0.000   0.000   0.000  -0.000   0.000  -0.000  -0.000  -0.000
 -0.000   0.000   0.020  -0.000   0.000  -0.000   0.000   0.000  -0.000   0.000   0.000   0.000  -0.000   0.000  -0.000  -0.000
  0.000  -0.000   0.000   0.000   0.000   0.000   0.999   0.125  -0.056   0.316  -0.154  -0.103  -0.018   0.004  -0.038   0.017
  0.000  -0.000   0.000  -0.000  -0.000   0.000   0.125   1.055  -0.028  -0.233   0.165  -0.017  -0.111   0.002   0.029  -0.017
 -0.000   0.000  -0.000   0.000   0.000  -0.000  -0.056  -0.028   1.248  -0.050  -0.034   0.004   0.002  -0.132   0.004   0.002
  0.000   0.000   0.000   0.000   0.000   0.000   0.316  -0.233  -0.050   0.770   0.144  -0.038   0.029   0.004  -0.076  -0.020
 -0.000   0.000   0.000   0.000   0.000   0.000  -0.154   0.165  -0.034   0.144   1.156   0.017  -0.017   0.002  -0.020  -0.121
 -0.000   0.000  -0.000  -0.000  -0.000   0.000  -0.103  -0.017   0.004  -0.038   0.017   0.011   0.002  -0.000   0.004  -0.002
 -0.000   0.000  -0.000  -0.000   0.000  -0.000  -0.018  -0.111   0.002   0.029  -0.017   0.002   0.012  -0.000  -0.003   0.002
  0.000  -0.000   0.000  -0.000  -0.000   0.000   0.004   0.002  -0.132   0.004   0.002  -0.000  -0.000   0.014  -0.000  -0.000
 -0.000  -0.000  -0.000  -0.000  -0.000  -0.000  -0.038   0.029   0.004  -0.076  -0.020   0.004  -0.003  -0.000   0.008   0.002
  0.000  -0.000  -0.000   0.000  -0.000  -0.000   0.017  -0.017   0.002  -0.020  -0.121  -0.002   0.002  -0.000   0.002   0.013
  0.000  -0.000   0.000   0.000   0.000   0.000   0.026  -0.021  -0.000  -0.037   0.016  -0.019   0.015   0.000   0.027  -0.012
  0.000  -0.000   0.000  -0.000  -0.000  -0.000  -0.001   0.001   0.000   0.002  -0.001   0.000  -0.000  -0.000  -0.000   0.000


------------------------ aborting loop because EDIFF is reached ----------------------------------------


    CHARGE:  cpu time      0.0462: real time      0.0469
    FORLOC:  cpu time      0.0036: real time      0.0036
    FORNL :  cpu time      0.0099: real time      0.0100
    STRESS:  cpu time      0.0377: real time      0.0381
    FORCOR:  cpu time      0.5456: real time      0.5508
    FORHAR:  cpu time      0.0561: real time      0.0567
    MIXING:  cpu time      0.0202: real time      0.0205
    OFIELD:  cpu time      0.0001: real time      0.0001

  FORCE on cell =-STRESS in cart. coord.  units (eV):
  Direction    XX          YY          ZZ          XY          YZ          ZX
  --------------------------------------------------------------------------------------
  Alpha Z     0.38174     0.38174     0.38174
  Ewald     -44.75418   -45.52111   -46.28634     0.00000     0.00000     0.00000
  Hartree   242.87372   243.86846   242.29006    -1.41673     1.13104     2.01722
  E(xc)     -47.45015   -47.47425   -47.46288     0.01970    -0.01572    -0.02805
  Local    -242.40455  -244.38949  -241.21566     2.85393    -2.27820    -4.06367
  n-local   -52.43352   -53.19634   -52.83593     0.62402    -0.49820    -0.88859
  augment    25.18535    25.79274    25.50586    -0.49677     0.39672     0.70755
  Kinetic   118.59939   120.53679   119.62102    -1.58477     1.26513     2.25679
  Fock        0.00000     0.00000     0.00000     0.00000     0.00000     0.00000
  -------------------------------------------------------------------------------------
  Total      -0.00220    -0.00146    -0.00213    -0.00061     0.00076     0.00125
  in kB      -0.00059    -0.00039    -0.00058    -0.00017     0.00021     0.00034
  external pressure =       -0.00 kB  Pullay stress =        0.00 kB


 VOLUME and BASIS-vectors are now :
 -----------------------------------------------------------------------------
  energy-cutoff  :      520.00
  volume of cell :     5929.56
      direct lattice vectors                 reciprocal lattice vectors
    18.000000000  0.000000000  0.000000000     0.055555556 -0.000000000  0.000000000
     0.000000000 18.100000000  0.000000000     0.000000000  0.055248619  0.000000000
     0.000000000  0.000000000 18.200000000    -0.000000000 -0.000000000  0.054945055

  length of vectors
    18.000000000 18.100000000 18.200000000     0.055555556  0.055248619  0.054945055


 FORCES acting on ions
    electron-ion (+dipol)            ewald-force                    non-local-force                 convergence-correction
 -----------------------------------------------------------------------------------------------
   0.480E-04 0.151E-03 0.221E-03   0.411E-16 -.523E-16 -.321E-16   -.424E-04 0.382E-04 0.409E-04   0.893E-06 -.188E-03 -.185E-03
 -----------------------------------------------------------------------------------------------
   0.480E-04 0.151E-03 0.221E-03   0.411E-16 -.523E-16 -.321E-16   -.424E-04 0.382E-04 0.409E-04   0.893E-06 -.188E-03 -.185E-03
 
 
 POSITION                                       TOTAL-FORCE (eV/Angst)
 -----------------------------------------------------------------------------------
      0.00000      0.00000      0.00000         0.000006      0.000001      0.000077
 -----------------------------------------------------------------------------------
    total drift:                                0.000006      0.000001      0.000077


--------------------------------------------------------------------------------------------------------



  FREE ENERGIE OF THE ION-ELECTRON SYSTEM (eV)
  ---------------------------------------------------
  free  energy   TOTEN  =        -3.17324850 eV

  energy  without entropy=       -3.14469288  energy(sigma->0) =       -3.15897069
 


--------------------------------------------------------------------------------------------------------


    POTLOK:  cpu time      1.0173: real time      1.0249


--------------------------------------------------------------------------------------------------------


     LOOP+:  cpu time     50.9516: real time     51.3196
    4ORBIT:  cpu time      0.0000: real time      0.0000

 total amount of memory used by VASP MPI-rank0    82068. kBytes
=======================================================================

   base      :      30000. kBytes
   nonl-proj :        396. kBytes
   fftplans  :      14937. kBytes
   grid      :      36243. kBytes
   one-center:         15. kBytes
   wavefun   :        477. kBytes
 
  
  
 General timing and accounting informations for this job:
 ========================================================
  
                  Total CPU time used (sec):       53.437
                            User time (sec):       47.766
                          System time (sec):        5.671
                         Elapsed time (sec):       54.384
  
                   Maximum memory used (kb):      496724.
                   Average memory used (kb):          N/A
  
                          Minor page faults:       177150
                          Major page faults:           28
                 Voluntary context switches:         1649
