 vasp.6.4.2 20Jul23 (build Aug 07 2024 12:45:50) gamma-only                     
  
 executed on             LinuxIFC date 2026.09.30  12:36:02
 running   64 mpi-ranks, on    1 nodes
 distrk:  each k-point on   64 cores,    1 groups
 distr:  one band on NCORE=  32 cores,    2 groups


--------------------------------------------------------------------------------------------------------


 INCAR:
   ALGO = Normal
   EDIFF = 1e-05
   EFERMI = Midgap
   ENCUT = 520.0
   GGA = Pe
   GGA_COMPAT = False
   IBRION = -1
   ISMEAR = 0
   ISPIN = 2
   ISYM = 0
   LAECHG = False
   LASPH = True
   LCHARG = False
   LMAXMIX = 6
   LMIXTAU = True
   LREAL = False
   LWAVE = False
   MAGMOM = 1*2.0
   NCORE = 32
   NELM = 400
   NSW = 0
   PREC = Accurate
   SIGMA = 0.05
   SYSTEM = Sn_atom_ispin2

 POTCAR:    PAW_PBE Sn_d 06Sep2000                
 -----------------------------------------------------------------------------
|                                                                             |
|           W    W    AA    RRRRR   N    N  II  N    N   GGGG   !!!           |
|           W    W   A  A   R    R  NN   N  II  NN   N  G    G  !!!           |
|           W    W  A    A  R    R  N N  N  II  N N  N  G       !!!           |
|           W WW W  AAAAAA  RRRRR   N  N N  II  N  N N  G  GGG   !            |
|           WW  WW  A    A  R   R   N   NN  II  N   NN  G    G                |
|           W    W  A    A  R    R  N    N  II  N    N   GGGG   !!!           |
|                                                                             |
|     For optimal performance we recommend to set                             |
|       NCORE = 2 up to number-of-cores-per-socket                            |
|     NCORE specifies how many cores store one orbital (NPAR=cpu/NCORE).      |
|     This setting can greatly improve the performance of VASP for DFT.       |
|     The default, NCORE=1 might be grossly inefficient on modern             |
|     multi-core architectures or massively parallel machines. Do your        |
|     own testing! More info at https://www.vasp.at/wiki/index.php/NCORE      |
|     Unfortunately you need to use the default for GW and RPA                |
|     calculations (for HF NCORE is supported but not extensively tested      |
|     yet).                                                                   |
|                                                                             |
 -----------------------------------------------------------------------------

 POTCAR:    PAW_PBE Sn_d 06Sep2000                
   SHA256 =  385b269c1887fa92a2bd1b595c4ea1490c7eb92f9f3d87257729a4a813cde741 Sn_d/POTCAR           
   COPYR  = (c) Copyright 06Sep2000 Georg Kresse                                                    
   COPYR  = This file is part of the software VASP. Any use, copying, and all other rights are regul
   COPYR  = If you do not have a valid VASP license, you may not use, copy or distribute this file. 
   VRHFIN =Sn: s2p2                                                                                 
   LEXCH  = PE                                                                                      
   EATOM  =  1893.1092 eV,  139.1396 Ry                                                             
                                                                                                    
   TITEL  = PAW_PBE Sn_d 06Sep2000                                                                  
   LULTRA =        F    use ultrasoft PP ?                                                          
   IUNSCR =        1    unscreen: 0-lin 1-nonlin 2-no                                               
   RPACOR =    2.300    partial core radius                                                         
   POMASS =  118.710; ZVAL   =   14.000    mass and valenz                                          
   RCORE  =    2.500    outmost cutoff radius                                                       
   RWIGS  =    2.960; RWIGS  =    1.566    wigner-seitz radius (au A)                               
   ENMAX  =  241.083; ENMIN  =  180.812 eV                                                          
   ICORE  =        3    local potential                                                             
   LCOR   =        T    correct aug charges                                                         
   LPAW   =        T    paw PP                                                                      
   EAUG   =  439.825                                                                                
   DEXC   =    0.000                                                                                
   RMAX   =    2.560    core radius for proj-oper                                                   
   RAUG   =    1.300    factor for augmentation sphere                                              
   RDEP   =    2.659    radius for radial grids                                                     
   RDEPT  =    2.046    core radius for aug-charge                                                  
                                                                                                    
   Atomic configuration                                                                             
   12 entries                                                                                       
     n  l   j            E        occ.                                                              
     1  0  0.50    -29007.2859   2.0000                                                             
     2  0  0.50     -4378.8056   2.0000                                                             
     2  1  1.50     -3930.4293   6.0000                                                             
     3  0  0.50      -845.0264   2.0000                                                             
     3  1  1.50      -698.5725   6.0000                                                             
     3  2  2.50      -473.2839  10.0000                                                             
     4  0  0.50      -133.9036   2.0000                                                             
     4  1  1.50       -89.6752   6.0000                                                             
     4  2  2.50       -25.8375  10.0000                                                             
     5  0  0.50       -10.5484   2.0000                                                             
     5  1  0.50        -3.6940   2.0000                                                             
     4  3  2.50        -2.7416   0.0000                                                             
   Description                                                                                      
     l       E           TYP  RCUT    TYP  RCUT                                                     
     2    -25.8374624     23  2.500                                                                 
     2     -5.4423304     23  2.500                                                                 
     0    -10.5483727     23  2.500                                                                 
     0     13.6058260     23  2.500                                                                 
     1     -3.6939829     23  2.500                                                                 
     1      1.9821976     23  2.500                                                                 
     3     -1.3605826      7  2.500                                                                 
  local pseudopotential read in
  partial core-charges read in
  partial kinetic energy density read in
  atomic valenz-charges read in
  non local Contribution for L=           2  read in
    real space projection operators read in
  non local Contribution for L=           2  read in
    real space projection operators read in
  non local Contribution for L=           0  read in
    real space projection operators read in
  non local Contribution for L=           0  read in
    real space projection operators read in
  non local Contribution for L=           1  read in
    real space projection operators read in
  non local Contribution for L=           1  read in
    real space projection operators read in
    PAW grid and wavefunctions read in
 
   number of l-projection  operators is LMAX  =           6
   number of lm-projection operators is LMMAX =          18
 
  PAW_PBE Sn_d 06Sep2000                :
 energy of atom  1       EATOM=-1893.1092
 kinetic energy error for atom=    0.0026 (will be added to EATOM!!)
 
 
 POSCAR: Sn1
  positions in direct lattice
  No initial velocities read in
 exchange correlation table for  LEXCH =        8
   RHO(1)=    0.500       N(1)  =     2000
   RHO(2)=  100.500       N(2)  =     4000
 


--------------------------------------------------------------------------------------------------------


 ion  position               nearest neighbor table
   1  0.000  0.000  0.000-
 

IMPORTANT INFORMATION: All symmetrisations will be switched off!
NOSYMM: (Re-)initialisation of all symmetry stuff for point group C_1.


----------------------------------------------------------------------------------------

                                     Primitive cell                                     

  volume of cell :    5929.5600

  direct lattice vectors                    reciprocal lattice vectors
    18.000000000  0.000000000  0.000000000     0.055555556 -0.000000000  0.000000000
     0.000000000 18.100000000  0.000000000     0.000000000  0.055248619  0.000000000
     0.000000000  0.000000000 18.200000000    -0.000000000 -0.000000000  0.054945055

  length of vectors
    18.000000000 18.100000000 18.200000000     0.055555556  0.055248619  0.054945055

  position of ions in fractional coordinates (direct lattice)
     0.000000000  0.000000000  0.000000000

  ion indices of the primitive-cell ions
   primitive index   ion index
                 1           1

----------------------------------------------------------------------------------------

 
 
 KPOINTS: Automatic kpoint scheme                 

Automatic generation of k-mesh.
 Grid dimensions read from file:
 generate k-points for:    1    1    1

 Generating k-lattice:

  Cartesian coordinates                     Fractional coordinates (reciprocal lattice)
     0.055555556 -0.000000000  0.000000000     1.000000000 -0.000000000  0.000000000
     0.000000000  0.055248619  0.000000000     0.000000000  1.000000000  0.000000000
    -0.000000000 -0.000000000  0.054945055    -0.000000000 -0.000000000  1.000000000

  Length of vectors
     0.055555556  0.055248619  0.054945055

  Shift w.r.t. Gamma in fractional coordinates (k-lattice)
     0.000000000  0.000000000  0.000000000

 
 Subroutine IBZKPT returns following result:
 ===========================================
 
 Found      1 irreducible k-points:
 
 Following reciprocal coordinates:
            Coordinates               Weight
  0.000000  0.000000  0.000000      1.000000
 
 Following cartesian coordinates:
            Coordinates               Weight
  0.000000  0.000000  0.000000      1.000000
 


--------------------------------------------------------------------------------------------------------




 Dimension of arrays:
   k-points           NKPTS =      1   k-points in BZ     NKDIM =      1   number of bands    NBANDS=     12
   number of dos      NEDOS =    301   number of ions     NIONS =      1
   non local maximal  LDIM  =      6   non local SUM 2l+1 LMDIM =     18
   total plane-waves  NPLWV = ******
   max r-space proj   IRMAX =      1   max aug-charges    IRDMAX=  20863
   dimension x,y,z NGX =   140 NGY =  140 NGZ =  140
   dimension x,y,z NGXF=   280 NGYF=  280 NGZF=  280
   support grid    NGXF=   280 NGYF=  280 NGZF=  280
   ions per type =               1
   NGX,Y,Z   is equivalent  to a cutoff of  12.93, 12.86, 12.79 a.u.
   NGXF,Y,Z  is equivalent  to a cutoff of  25.86, 25.72, 25.58 a.u.

 SYSTEM =  Sn_atom_ispin2                          
 POSCAR =  Sn1                                     

 Startparameter for this run:
   NWRITE =      2    write-flag & timer
   PREC   = accura    normal or accurate (medium, high low for compatibility)
   ISTART =      0    job   : 0-new  1-cont  2-samecut
   ICHARG =      2    charge: 1-file 2-atom 10-const
   ISPIN  =      2    spin polarized calculation?
   LNONCOLLINEAR =      F non collinear calculations
   LSORBIT =      F    spin-orbit coupling
   INIWAV =      1    electr: 0-lowe 1-rand  2-diag
   LASPH  =      T    aspherical Exc in radial PAW
 Electronic Relaxation 1
   ENCUT  =  520.0 eV  38.22 Ry    6.18 a.u.  33.47 33.65 33.84*2*pi/ulx,y,z
   ENINI  =  520.0     initial cutoff
   ENAUG  =  439.8 eV  augmentation charge cutoff
   NELM   =    400;   NELMIN=  2; NELMDL= -5     # of ELM steps 
   EDIFF  = 0.1E-04   stopping-criterion for ELM
   LREAL  =      F    real-space projection
   NLSPLINE    = F    spline interpolate recip. space projectors
   LCOMPAT=      F    compatible to vasp.4.4
   GGA_COMPAT  = F    GGA compatible to vasp.4.4-vasp.4.6
   LMAXPAW     = -100 max onsite density
   LMAXMIX     =    6 max onsite mixed and CHGCAR
   VOSKOWN=      0    Vosko Wilk Nusair interpolation
   ROPT   =    0.00000
 Ionic relaxation
   EDIFFG = 0.1E-03   stopping-criterion for IOM
   NSW    =      0    number of steps for IOM
   NBLOCK =      1;   KBLOCK =      1    inner block; outer block 
   IBRION =     -1    ionic relax: 0-MD 1-quasi-New 2-CG
   NFREE  =      0    steps in history (QN), initial steepest desc. (CG)
   ISIF   =      2    stress and relaxation
   IWAVPR =     10    prediction:  0-non 1-charg 2-wave 3-comb
   ISYM   =      0    0-nonsym 1-usesym 2-fastsym
   LCORR  =      T    Harris-Foulkes like correction to forces

   POTIM  = 0.5000    time-step for ionic-motion
   TEIN   =    0.0    initial temperature
   TEBEG  =    0.0;   TEEND  =   0.0 temperature during run
   SMASS  =  -3.00    Nose mass-parameter (am)
   estimated Nose-frequenzy (Omega)   =  0.10E-29 period in steps = 0.13E+47 mass=  -0.740E-26a.u.
   SCALEE = 1.0000    scale energy and forces
   NPACO  =    256;   APACO  = 10.0  distance and # of slots for P.C.
   PSTRESS=    0.0 pullay stress

  Mass of Ions in am
   POMASS = 118.71
  Ionic Valenz
   ZVAL   =  14.00
  Atomic Wigner-Seitz radii
   RWIGS  =  -1.00
  virtual crystal weights 
   VCA    =   1.00
   NELECT =      14.0000    total number of electrons
   NUPDOWN=      -1.0000    fix difference up-down

 DOS related values:
   EMIN   =  10.00;   EMAX   =-10.00  energy-range for DOS
   EFERMI =   0.00;   METHOD = MIDGAP      
   ISMEAR =     0;   SIGMA  =   0.05  broadening in eV -4-tet -1-fermi 0-gaus

 Electronic relaxation 2 (details)
   IALGO  =     38    algorithm
   LDIAG  =      T    sub-space diagonalisation (order eigenvalues)
   LSUBROT=      F    optimize rotation matrix (better conditioning)
   TURBO    =      0    0=normal 1=particle mesh
   IRESTART =      0    0=no restart 2=restart with 2 vectors
   NREBOOT  =      0    no. of reboots
   NMIN     =      0    reboot dimension
   EREF     =   0.00    reference energy to select bands
   IMIX   =      4    mixing-type and parameters
     AMIX     =   0.40;   BMIX     =  1.00
     AMIX_MAG =   1.60;   BMIX_MAG =  1.00
     AMIN     =   0.10
     WC   =   100.;   INIMIX=   1;  MIXPRE=   1;  MAXMIX= -45

 Intra band minimization:
   WEIMIN = 0.0000     energy-eigenvalue tresh-hold
   EBREAK =  0.21E-06  absolut break condition
   DEPER  =   0.30     relativ break condition  

   TIME   =   0.40     timestep for ELM

  volume/ion in A,a.u.               =    5929.56     40014.65
  Fermi-wavevector in a.u.,A,eV,Ry     =   0.217993  0.411948  0.646564  0.047521
  Thomas-Fermi vector in A             =   0.995579
 
 Write flags
   LWAVE        =      F    write WAVECAR
   LDOWNSAMPLE  =      F    k-point downsampling of WAVECAR
   LCHARG       =      F    write CHGCAR
   LVTOT        =      F    write LOCPOT, total local potential
   LVHAR        =      F    write LOCPOT, Hartree potential only
   LELF         =      F    write electronic localiz. function (ELF)
   LORBIT       =      0    0 simple, 1 ext, 2 COOP (PROOUT), +10 PAW based schemes


 Dipole corrections
   LMONO  =      F    monopole corrections only (constant potential shift)
   LDIPOL =      F    correct potential (dipole corrections)
   IDIPOL =      0    1-x, 2-y, 3-z, 4-all directions 
   EPSILON=  1.0000000 bulk dielectric constant

 Exchange correlation treatment:
   GGA     =    PE    GGA type
   LEXCH   =     8    internal setting for exchange type
   LIBXC   =     F    Libxc                    
   VOSKOWN =     0    Vosko Wilk Nusair interpolation
   LHFCALC =     F    Hartree Fock is set to
   LHFONE  =     F    Hartree Fock one center treatment
   AEXX    =    0.0000 exact exchange contribution

 Linear response parameters
   LEPSILON=     F    determine dielectric tensor
   LRPA    =     F    only Hartree local field effects (RPA)
   LNABLA  =     F    use nabla operator in PAW spheres
   LVEL    =     F    velocity operator in full k-point grid
   CSHIFT  =0.1000    complex shift for real part using Kramers Kronig
   OMEGAMAX=  -1.0    maximum frequency
   DEG_THRESHOLD= 0.2000000E-02 threshold for treating states as degnerate
   RTIME   =   -0.100 relaxation time in fs
  (WPLASMAI=    0.000 imaginary part of plasma frequency in eV, 0.658/RTIME)
   DFIELD  = 0.0000000 0.0000000 0.0000000 field for delta impulse in time
 
  Optional k-point grid parameters
   LKPOINTS_OPT  =     F    use optional k-point grid
   KPOINTS_OPT_MODE=     1    mode for optional k-point grid
 
 Orbital magnetization related:
   ORBITALMAG=     F  switch on orbital magnetization
   LCHIMAG   =     F  perturbation theory with respect to B field
   DQ        =  0.001000  dq finite difference perturbation B field
   LLRAUG    =     F  two centre corrections for induced B field
   LBONE     =     F  B-component reconstruction in AE one-centre
   LVGVCALC  =     T  calculate vGv susceptibility
   LVGVAPPL  =     F  apply vGv susceptibility instead of pGv for G=0

 Random number generation:
   RANDOM_GENERATOR = DEFAULT
   PCG_SEED         = not used


--------------------------------------------------------------------------------------------------------


 Static calculation
 charge density and potential will be updated during run
 spin polarized calculation
 Variant of blocked Davidson
 Davidson routine will perform the subspace rotation
 perform sub-space diagonalisation
    after iterative eigenvector-optimisation
 modified Broyden-mixing scheme, WC =      100.0
 initial mixing is a Kerker type mixing with AMIX =  0.4000 and BMIX =      1.0000
 Hartree-type preconditioning will be used
 using additional bands            5
 reciprocal scheme for non local part
 use partial core corrections
 calculate Harris-corrections to forces 
   (improved forces if not selfconsistent)
 use gradient corrections 
 use of overlap-Matrix (Vanderbilt PP)
 Gauss-broadening in eV      SIGMA  =   0.05


--------------------------------------------------------------------------------------------------------


  energy-cutoff  :      520.00
  volume of cell :     5929.56
      direct lattice vectors                 reciprocal lattice vectors
    18.000000000  0.000000000  0.000000000     0.055555556 -0.000000000  0.000000000
     0.000000000 18.100000000  0.000000000     0.000000000  0.055248619  0.000000000
     0.000000000  0.000000000 18.200000000    -0.000000000 -0.000000000  0.054945055

  length of vectors
    18.000000000 18.100000000 18.200000000     0.055555556  0.055248619  0.054945055


 
 k-points in units of 2pi/SCALE and weight: Automatic kpoint scheme                 
   0.00000000  0.00000000  0.00000000       1.000
 
 k-points in reciprocal lattice and weights: Automatic kpoint scheme                 
   0.00000000  0.00000000  0.00000000       1.000
 
 position of ions in fractional coordinates (direct lattice) 
   0.00000000  0.00000000  0.00000000
 
 position of ions in cartesian coordinates  (Angst):
   0.00000000  0.00000000  0.00000000
 


--------------------------------------------------------------------------------------------------------


 use parallel FFT for orbitals z direction half grid
 k-point   1 :   0.0000 0.0000 0.0000  plane waves:   79868

 maximum and minimum number of plane-waves per node :      2508     2479

 maximum number of plane-waves:     79868
 maximum index in each direction: 
   IXMAX=   33   IYMAX=   33   IZMAX=   33
   IXMIN=  -33   IYMIN=  -33   IZMIN=    0


 parallel 3D FFT for wavefunctions:
    minimum data exchange during FFTs selected (reduces bandwidth)
 parallel 3D FFT for charge:
    minimum data exchange during FFTs selected (reduces bandwidth)


 total amount of memory used by VASP MPI-rank0    82068. kBytes
=======================================================================

   base      :      30000. kBytes
   nonl-proj :        396. kBytes
   fftplans  :      14937. kBytes
   grid      :      36243. kBytes
   one-center:         15. kBytes
   wavefun   :        477. kBytes
 
     INWAV:  cpu time      0.0000: real time      0.0000
 Broyden mixing: mesh for mixing (old mesh)
   NGX = 67   NGY = 67   NGZ = 67
  (NGX  =280   NGY  =280   NGZ  =280)
  gives a total of 300763 points

 initial charge density was supplied:
 charge density of overlapping atoms calculated
 number of electron      14.0000000 magnetization       2.0000000
 keeping initial charge density in first step


--------------------------------------------------------------------------------------------------------


 Maximum index for augmentation-charges          885 (set IRDMAX)


--------------------------------------------------------------------------------------------------------


 First call to EWALD:  gamma=   0.098
 Maximum number of real-space cells 3x 3x 3
 Maximum number of reciprocal cells 3x 3x 3

    FEWALD:  cpu time      0.0020: real time      0.0020


--------------------------------------- Ionic step        1  -------------------------------------------




--------------------------------------- Iteration      1(   1)  ---------------------------------------


    POTLOK:  cpu time      0.5701: real time      0.5743
    SETDIJ:  cpu time      0.4575: real time      0.4597
     EDDAV:  cpu time      0.2140: real time      0.2170
       DOS:  cpu time      0.0004: real time      0.0004
    --------------------------------------------
      LOOP:  cpu time      1.2420: real time      1.2513

 eigenvalue-minimisations  :    80
 total energy-change (2. order) : 0.4736082E+02  (-0.3991010E+03)
 number of electron      14.0000000 magnetization       2.0000000
 augmentation part       14.0000000 magnetization       2.0000000

 Free energy of the ion-electron system (eV)
  ---------------------------------------------------
  alpha Z        PSCENC =         0.18886148
  Ewald energy   TEWEN  =      -221.20727573
  -Hartree energ DENC   =     -1404.09538291
  -exchange      EXHF   =         0.00000000
  -V(xc)+E(xc)   XCENC  =        55.49349541
  PAW double counting   =      1568.60005945    -1605.80699798
  entropy T*S    EENTRO =        -0.00000000
  eigenvalues    EBANDS =      -238.91856874
  atomic energy  EATOM  =      1893.10662729
  Solvation  Ediel_sol  =         0.00000000
  ---------------------------------------------------
  free energy    TOTEN  =        47.36081828 eV

  energy without entropy =       47.36081828  energy(sigma->0) =       47.36081828


--------------------------------------------------------------------------------------------------------




--------------------------------------- Iteration      1(   2)  ---------------------------------------


     EDDAV:  cpu time      0.1761: real time      0.1787
       DOS:  cpu time      0.0003: real time      0.0003
    --------------------------------------------
      LOOP:  cpu time      0.1765: real time      0.1790

 eigenvalue-minimisations  :    72
 total energy-change (2. order) :-0.4261783E+02  (-0.4100880E+02)
 number of electron      14.0000000 magnetization       2.0000000
 augmentation part       14.0000000 magnetization       2.0000000

 Free energy of the ion-electron system (eV)
  ---------------------------------------------------
  alpha Z        PSCENC =         0.18886148
  Ewald energy   TEWEN  =      -221.20727573
  -Hartree energ DENC   =     -1404.09538291
  -exchange      EXHF   =         0.00000000
  -V(xc)+E(xc)   XCENC  =        55.49349541
  PAW double counting   =      1568.60005945    -1605.80699798
  entropy T*S    EENTRO =        -0.01283034
  eigenvalues    EBANDS =      -281.52357008
  atomic energy  EATOM  =      1893.10662729
  Solvation  Ediel_sol  =         0.00000000
  ---------------------------------------------------
  free energy    TOTEN  =         4.74298659 eV

  energy without entropy =        4.75581693  energy(sigma->0) =        4.74940176


--------------------------------------------------------------------------------------------------------




--------------------------------------- Iteration      1(   3)  ---------------------------------------


     EDDAV:  cpu time      0.2046: real time      0.2066
       DOS:  cpu time      0.0003: real time      0.0003
    --------------------------------------------
      LOOP:  cpu time      0.2049: real time      0.2069

 eigenvalue-minimisations  :    72
 total energy-change (2. order) :-0.4563124E+01  (-0.4509187E+01)
 number of electron      14.0000000 magnetization       2.0000000
 augmentation part       14.0000000 magnetization       2.0000000

 Free energy of the ion-electron system (eV)
  ---------------------------------------------------
  alpha Z        PSCENC =         0.18886148
  Ewald energy   TEWEN  =      -221.20727573
  -Hartree energ DENC   =     -1404.09538291
  -exchange      EXHF   =         0.00000000
  -V(xc)+E(xc)   XCENC  =        55.49349541
  PAW double counting   =      1568.60005945    -1605.80699798
  entropy T*S    EENTRO =        -0.02526032
  eigenvalues    EBANDS =      -286.07426452
  atomic energy  EATOM  =      1893.10662729
  Solvation  Ediel_sol  =         0.00000000
  ---------------------------------------------------
  free energy    TOTEN  =         0.17986217 eV

  energy without entropy =        0.20512249  energy(sigma->0) =        0.19249233


--------------------------------------------------------------------------------------------------------




--------------------------------------- Iteration      1(   4)  ---------------------------------------


     EDDAV:  cpu time      0.1383: real time      0.1398
       DOS:  cpu time      0.0003: real time      0.0003
    --------------------------------------------
      LOOP:  cpu time      0.1386: real time      0.1402

 eigenvalue-minimisations  :    48
 total energy-change (2. order) :-0.1970733E+00  (-0.1850514E+00)
 number of electron      14.0000000 magnetization       2.0000000
 augmentation part       14.0000000 magnetization       2.0000000

 Free energy of the ion-electron system (eV)
  ---------------------------------------------------
  alpha Z        PSCENC =         0.18886148
  Ewald energy   TEWEN  =      -221.20727573
  -Hartree energ DENC   =     -1404.09538291
  -exchange      EXHF   =         0.00000000
  -V(xc)+E(xc)   XCENC  =        55.49349541
  PAW double counting   =      1568.60005945    -1605.80699798
  entropy T*S    EENTRO =        -0.03852688
  eigenvalues    EBANDS =      -286.25807125
  atomic energy  EATOM  =      1893.10662729
  Solvation  Ediel_sol  =         0.00000000
  ---------------------------------------------------
  free energy    TOTEN  =        -0.01721112 eV

  energy without entropy =        0.02131576  energy(sigma->0) =        0.00205232


--------------------------------------------------------------------------------------------------------




--------------------------------------- Iteration      1(   5)  ---------------------------------------


     EDDAV:  cpu time      0.1956: real time      0.1975
       DOS:  cpu time      0.0004: real time      0.0003
    CHARGE:  cpu time      0.0512: real time      0.0517
    MIXING:  cpu time      0.0101: real time      0.0102
    --------------------------------------------
      LOOP:  cpu time      0.2573: real time      0.2598

 eigenvalue-minimisations  :    72
 total energy-change (2. order) :-0.5169800E-02  (-0.5131232E-02)
 number of electron      13.9999988 magnetization       2.0000000
 augmentation part        7.2791436 magnetization      -0.1132219

 Broyden mixing:
  rms(total) = 0.10096E+01    rms(broyden)= 0.10096E+01
  rms(prec ) = 0.10096E+01
  weight for this iteration     100.00

 Free energy of the ion-electron system (eV)
  ---------------------------------------------------
  alpha Z        PSCENC =         0.18886148
  Ewald energy   TEWEN  =      -221.20727573
  -Hartree energ DENC   =     -1404.09538291
  -exchange      EXHF   =         0.00000000
  -V(xc)+E(xc)   XCENC  =        55.49349541
  PAW double counting   =      1568.60005945    -1605.80699798
  entropy T*S    EENTRO =        -0.03856558
  eigenvalues    EBANDS =      -286.26320236
  atomic energy  EATOM  =      1893.10662729
  Solvation  Ediel_sol  =         0.00000000
  ---------------------------------------------------
  free energy    TOTEN  =        -0.02238092 eV

  energy without entropy =        0.01618466  energy(sigma->0) =       -0.00309813


--------------------------------------------------------------------------------------------------------




--------------------------------------- Iteration      1(   6)  ---------------------------------------


    POTLOK:  cpu time      0.5790: real time      0.5831
    SETDIJ:  cpu time      0.4580: real time      0.4603
     EDDAV:  cpu time      0.1459: real time      0.1473
       DOS:  cpu time      0.0005: real time      0.0005
    CHARGE:  cpu time      0.0467: real time      0.0473
    MIXING:  cpu time      0.0103: real time      0.0104
    --------------------------------------------
      LOOP:  cpu time      1.2404: real time      1.2489

 eigenvalue-minimisations  :    52
 total energy-change (2. order) :-0.3956943E+00  (-0.8991124E-01)
 number of electron      13.9999988 magnetization       2.0000000
 augmentation part        7.2797851 magnetization      -0.1508411

 Broyden mixing:
  rms(total) = 0.39535E+00    rms(broyden)= 0.39535E+00
  rms(prec ) = 0.39568E+00
  weight for this iteration     100.00

 eigenvalues of (default mixing * dielectric matrix)
  average eigenvalue GAMMA=   0.7188
  0.7188

 Free energy of the ion-electron system (eV)
  ---------------------------------------------------
  alpha Z        PSCENC =         0.18886148
  Ewald energy   TEWEN  =      -221.20727573
  -Hartree energ DENC   =     -1404.61530788
  -exchange      EXHF   =         0.00000000
  -V(xc)+E(xc)   XCENC  =        55.99044676
  PAW double counting   =      1565.41983630    -1602.78441444
  entropy T*S    EENTRO =        -0.03853302
  eigenvalues    EBANDS =      -286.47831597
  atomic energy  EATOM  =      1893.10662729
  Solvation  Ediel_sol  =         0.00000000
  ---------------------------------------------------
  free energy    TOTEN  =        -0.41807520 eV

  energy without entropy =       -0.37954218  energy(sigma->0) =       -0.39880869


--------------------------------------------------------------------------------------------------------




--------------------------------------- Iteration      1(   7)  ---------------------------------------


    POTLOK:  cpu time      0.5844: real time      0.5887
    SETDIJ:  cpu time      0.4564: real time      0.4586
     EDDAV:  cpu time      0.1386: real time      0.1400
       DOS:  cpu time      0.0003: real time      0.0003
    CHARGE:  cpu time      0.0468: real time      0.0474
    MIXING:  cpu time      0.0122: real time      0.0123
    --------------------------------------------
      LOOP:  cpu time      1.2388: real time      1.2474

 eigenvalue-minimisations  :    48
 total energy-change (2. order) :-0.1892497E+00  (-0.1813769E-01)
 number of electron      13.9999988 magnetization       2.0000000
 augmentation part        7.2796933 magnetization      -0.1251250

 Broyden mixing:
  rms(total) = 0.26274E-01    rms(broyden)= 0.26274E-01
  rms(prec ) = 0.27562E-01
  weight for this iteration     100.00

 eigenvalues of (default mixing * dielectric matrix)
  average eigenvalue GAMMA=   0.7878
  0.8623  0.7134

 Free energy of the ion-electron system (eV)
  ---------------------------------------------------
  alpha Z        PSCENC =         0.18886148
  Ewald energy   TEWEN  =      -221.20727573
  -Hartree energ DENC   =     -1405.38517595
  -exchange      EXHF   =         0.00000000
  -V(xc)+E(xc)   XCENC  =        55.64880285
  PAW double counting   =      1580.23295115    -1617.67977098
  entropy T*S    EENTRO =        -0.03840934
  eigenvalues    EBANDS =      -285.47393569
  atomic energy  EATOM  =      1893.10662729
  Solvation  Ediel_sol  =         0.00000000
  ---------------------------------------------------
  free energy    TOTEN  =        -0.60732491 eV

  energy without entropy =       -0.56891557  energy(sigma->0) =       -0.58812024


--------------------------------------------------------------------------------------------------------




--------------------------------------- Iteration      1(   8)  ---------------------------------------


    POTLOK:  cpu time      0.6093: real time      0.6126
    SETDIJ:  cpu time      0.4587: real time      0.4609
     EDDAV:  cpu time      0.1447: real time      0.1462
       DOS:  cpu time      0.0004: real time      0.0004
    CHARGE:  cpu time      0.0459: real time      0.0464
    MIXING:  cpu time      0.0104: real time      0.0105
    --------------------------------------------
      LOOP:  cpu time      1.2694: real time      1.2770

 eigenvalue-minimisations  :    52
 total energy-change (2. order) :-0.3223782E-01  (-0.2137245E-02)
 number of electron      13.9999988 magnetization       2.0000000
 augmentation part        7.2806779 magnetization      -0.1228478

 Broyden mixing:
  rms(total) = 0.23497E-01    rms(broyden)= 0.23497E-01
  rms(prec ) = 0.26303E-01
  weight for this iteration     100.00

 eigenvalues of (default mixing * dielectric matrix)
  average eigenvalue GAMMA=   0.7590
  0.9827  0.7329  0.5616

 Free energy of the ion-electron system (eV)
  ---------------------------------------------------
  alpha Z        PSCENC =         0.18886148
  Ewald energy   TEWEN  =      -221.20727573
  -Hartree energ DENC   =     -1405.71098741
  -exchange      EXHF   =         0.00000000
  -V(xc)+E(xc)   XCENC  =        55.61471521
  PAW double counting   =      1586.34258806    -1623.79232967
  entropy T*S    EENTRO =        -0.03782383
  eigenvalues    EBANDS =      -285.14393814
  atomic energy  EATOM  =      1893.10662729
  Solvation  Ediel_sol  =         0.00000000
  ---------------------------------------------------
  free energy    TOTEN  =        -0.63956274 eV

  energy without entropy =       -0.60173890  energy(sigma->0) =       -0.62065082


--------------------------------------------------------------------------------------------------------




--------------------------------------- Iteration      1(   9)  ---------------------------------------


    POTLOK:  cpu time      0.5686: real time      0.5726
    SETDIJ:  cpu time      0.4563: real time      0.4586
     EDDAV:  cpu time      0.1393: real time      0.1405
       DOS:  cpu time      0.0004: real time      0.0004
    CHARGE:  cpu time      0.0468: real time      0.0473
    MIXING:  cpu time      0.0104: real time      0.0105
    --------------------------------------------
      LOOP:  cpu time      1.2218: real time      1.2299

 eigenvalue-minimisations  :    48
 total energy-change (2. order) :-0.1717887E-01  (-0.2216065E-03)
 number of electron      13.9999988 magnetization       2.0000000
 augmentation part        7.2815139 magnetization      -0.1229286

 Broyden mixing:
  rms(total) = 0.34128E-01    rms(broyden)= 0.34127E-01
  rms(prec ) = 0.39157E-01
  weight for this iteration     100.00

 eigenvalues of (default mixing * dielectric matrix)
  average eigenvalue GAMMA=   0.7932
  1.1037  0.7489  0.6410  0.6791

 Free energy of the ion-electron system (eV)
  ---------------------------------------------------
  alpha Z        PSCENC =         0.18886148
  Ewald energy   TEWEN  =      -221.20727573
  -Hartree energ DENC   =     -1405.80598651
  -exchange      EXHF   =         0.00000000
  -V(xc)+E(xc)   XCENC  =        55.60324356
  PAW double counting   =      1588.73153202    -1626.16633403
  entropy T*S    EENTRO =        -0.03642328
  eigenvalues    EBANDS =      -285.07098641
  atomic energy  EATOM  =      1893.10662729
  Solvation  Ediel_sol  =         0.00000000
  ---------------------------------------------------
  free energy    TOTEN  =        -0.65674161 eV

  energy without entropy =       -0.62031833  energy(sigma->0) =       -0.63852997


--------------------------------------------------------------------------------------------------------




--------------------------------------- Iteration      1(  10)  ---------------------------------------


    POTLOK:  cpu time      0.5997: real time      0.6038
    SETDIJ:  cpu time      0.4567: real time      0.4589
     EDDAV:  cpu time      0.1454: real time      0.1468
       DOS:  cpu time      0.0004: real time      0.0004
    CHARGE:  cpu time      0.0461: real time      0.0466
    MIXING:  cpu time      0.0111: real time      0.0111
    --------------------------------------------
      LOOP:  cpu time      1.2594: real time      1.2677

 eigenvalue-minimisations  :    52
 total energy-change (2. order) : 0.1282229E-01  (-0.2728816E-03)
 number of electron      13.9999988 magnetization       2.0000000
 augmentation part        7.2815952 magnetization      -0.1231147

 Broyden mixing:
  rms(total) = 0.95429E-02    rms(broyden)= 0.95414E-02
  rms(prec ) = 0.10286E-01
  weight for this iteration     100.00

 eigenvalues of (default mixing * dielectric matrix)
  average eigenvalue GAMMA=   0.9334
  0.8164  1.5418  0.9258  0.7469  0.6361

 Free energy of the ion-electron system (eV)
  ---------------------------------------------------
  alpha Z        PSCENC =         0.18886148
  Ewald energy   TEWEN  =      -221.20727573
  -Hartree energ DENC   =     -1405.85505552
  -exchange      EXHF   =         0.00000000
  -V(xc)+E(xc)   XCENC  =        55.61476129
  PAW double counting   =      1588.73489629    -1626.18485475
  entropy T*S    EENTRO =        -0.03852014
  eigenvalues    EBANDS =      -285.00335954
  atomic energy  EATOM  =      1893.10662729
  Solvation  Ediel_sol  =         0.00000000
  ---------------------------------------------------
  free energy    TOTEN  =        -0.64391932 eV

  energy without entropy =       -0.60539917  energy(sigma->0) =       -0.62465925


--------------------------------------------------------------------------------------------------------




--------------------------------------- Iteration      1(  11)  ---------------------------------------


    POTLOK:  cpu time      0.5821: real time      0.5860
    SETDIJ:  cpu time      0.4569: real time      0.4592
     EDDAV:  cpu time      0.1394: real time      0.1407
       DOS:  cpu time      0.0004: real time      0.0004
    CHARGE:  cpu time      0.0484: real time      0.0489
    MIXING:  cpu time      0.0108: real time      0.0109
    --------------------------------------------
      LOOP:  cpu time      1.2380: real time      1.2460

 eigenvalue-minimisations  :    48
 total energy-change (2. order) :-0.2001075E-01  (-0.2497043E-03)
 number of electron      13.9999988 magnetization       2.0000000
 augmentation part        7.2829144 magnetization      -0.1231384

 Broyden mixing:
  rms(total) = 0.46253E-02    rms(broyden)= 0.46249E-02
  rms(prec ) = 0.50072E-02
  weight for this iteration     100.00

 eigenvalues of (default mixing * dielectric matrix)
  average eigenvalue GAMMA=   1.0213
  0.8326  1.8278  1.2440  0.6430  0.7708  0.8099

 Free energy of the ion-electron system (eV)
  ---------------------------------------------------
  alpha Z        PSCENC =         0.18886148
  Ewald energy   TEWEN  =      -221.20727573
  -Hartree energ DENC   =     -1405.96067953
  -exchange      EXHF   =         0.00000000
  -V(xc)+E(xc)   XCENC  =        55.59795544
  PAW double counting   =      1593.62149799    -1631.01691975
  entropy T*S    EENTRO =        -0.03856251
  eigenvalues    EBANDS =      -284.95543475
  atomic energy  EATOM  =      1893.10662729
  Solvation  Ediel_sol  =         0.00000000
  ---------------------------------------------------
  free energy    TOTEN  =        -0.66393007 eV

  energy without entropy =       -0.62536756  energy(sigma->0) =       -0.64464881


--------------------------------------------------------------------------------------------------------




--------------------------------------- Iteration      1(  12)  ---------------------------------------


    POTLOK:  cpu time      0.6244: real time      0.6285
    SETDIJ:  cpu time      0.4563: real time      0.4586
     EDDAV:  cpu time      0.1443: real time      0.1458
       DOS:  cpu time      0.0004: real time      0.0004
    CHARGE:  cpu time      0.0459: real time      0.0465
    MIXING:  cpu time      0.0110: real time      0.0111
    --------------------------------------------
      LOOP:  cpu time      1.2823: real time      1.2909

 eigenvalue-minimisations  :    52
 total energy-change (2. order) :-0.1719952E-01  (-0.4391233E-04)
 number of electron      13.9999988 magnetization       2.0000000
 augmentation part        7.2833043 magnetization      -0.1237777

 Broyden mixing:
  rms(total) = 0.41645E-02    rms(broyden)= 0.41644E-02
  rms(prec ) = 0.46488E-02
  weight for this iteration     100.00

 eigenvalues of (default mixing * dielectric matrix)
  average eigenvalue GAMMA=   0.9969
  0.8387  1.9787  1.3323  0.8640  0.7459  0.6384  0.5800

 Free energy of the ion-electron system (eV)
  ---------------------------------------------------
  alpha Z        PSCENC =         0.18886148
  Ewald energy   TEWEN  =      -221.20727573
  -Hartree energ DENC   =     -1405.97458569
  -exchange      EXHF   =         0.00000000
  -V(xc)+E(xc)   XCENC  =        55.57989889
  PAW double counting   =      1595.49656914    -1632.84122878
  entropy T*S    EENTRO =        -0.03855507
  eigenvalues    EBANDS =      -284.99144112
  atomic energy  EATOM  =      1893.10662729
  Solvation  Ediel_sol  =         0.00000000
  ---------------------------------------------------
  free energy    TOTEN  =        -0.68112959 eV

  energy without entropy =       -0.64257451  energy(sigma->0) =       -0.66185205


--------------------------------------------------------------------------------------------------------




--------------------------------------- Iteration      1(  13)  ---------------------------------------


    POTLOK:  cpu time      0.5735: real time      0.5784
    SETDIJ:  cpu time      0.4566: real time      0.4587
     EDDAV:  cpu time      0.1546: real time      0.1562
       DOS:  cpu time      0.0004: real time      0.0004
    CHARGE:  cpu time      0.0457: real time      0.0462
    MIXING:  cpu time      0.0113: real time      0.0113
    --------------------------------------------
      LOOP:  cpu time      1.2420: real time      1.2513

 eigenvalue-minimisations  :    60
 total energy-change (2. order) :-0.4043466E-02  (-0.6797329E-05)
 number of electron      13.9999988 magnetization       2.0000000
 augmentation part        7.2834376 magnetization      -0.1237253

 Broyden mixing:
  rms(total) = 0.51675E-02    rms(broyden)= 0.51675E-02
  rms(prec ) = 0.58519E-02
  weight for this iteration     100.00

 eigenvalues of (default mixing * dielectric matrix)
  average eigenvalue GAMMA=   0.9887
  2.1543  1.3647  0.8856  0.7239  0.6741  0.6504  0.8197  0.6368

 Free energy of the ion-electron system (eV)
  ---------------------------------------------------
  alpha Z        PSCENC =         0.18886148
  Ewald energy   TEWEN  =      -221.20727573
  -Hartree energ DENC   =     -1405.98614855
  -exchange      EXHF   =         0.00000000
  -V(xc)+E(xc)   XCENC  =        55.57654090
  PAW double counting   =      1595.77958425    -1633.11664011
  entropy T*S    EENTRO =        -0.03853550
  eigenvalues    EBANDS =      -284.98818709
  atomic energy  EATOM  =      1893.10662729
  Solvation  Ediel_sol  =         0.00000000
  ---------------------------------------------------
  free energy    TOTEN  =        -0.68517305 eV

  energy without entropy =       -0.64663755  energy(sigma->0) =       -0.66590530


--------------------------------------------------------------------------------------------------------




--------------------------------------- Iteration      1(  14)  ---------------------------------------


    POTLOK:  cpu time      0.5818: real time      0.5862
    SETDIJ:  cpu time      0.4566: real time      0.4589
     EDDAV:  cpu time      0.1441: real time      0.1459
       DOS:  cpu time      0.0004: real time      0.0004
    CHARGE:  cpu time      0.0464: real time      0.0468
    MIXING:  cpu time      0.0119: real time      0.0119
    --------------------------------------------
      LOOP:  cpu time      1.2411: real time      1.2500

 eigenvalue-minimisations  :    52
 total energy-change (2. order) : 0.1618407E-03  (-0.7026535E-05)
 number of electron      13.9999988 magnetization       2.0000000
 augmentation part        7.2835290 magnetization      -0.1237373

 Broyden mixing:
  rms(total) = 0.32007E-02    rms(broyden)= 0.32006E-02
  rms(prec ) = 0.35653E-02
  weight for this iteration     100.00

 eigenvalues of (default mixing * dielectric matrix)
  average eigenvalue GAMMA=   1.0809
  2.4198  0.8631  0.8631  1.6192  1.1245  0.7940  0.7054  0.7054  0.6337

 Free energy of the ion-electron system (eV)
  ---------------------------------------------------
  alpha Z        PSCENC =         0.18886148
  Ewald energy   TEWEN  =      -221.20727573
  -Hartree energ DENC   =     -1405.98611853
  -exchange      EXHF   =         0.00000000
  -V(xc)+E(xc)   XCENC  =        55.57696014
  PAW double counting   =      1596.04087217    -1633.37382902
  entropy T*S    EENTRO =        -0.03856151
  eigenvalues    EBANDS =      -284.99254750
  atomic energy  EATOM  =      1893.10662729
  Solvation  Ediel_sol  =         0.00000000
  ---------------------------------------------------
  free energy    TOTEN  =        -0.68501121 eV

  energy without entropy =       -0.64644970  energy(sigma->0) =       -0.66573045


--------------------------------------------------------------------------------------------------------




--------------------------------------- Iteration      1(  15)  ---------------------------------------


    POTLOK:  cpu time      0.5889: real time      0.5935
    SETDIJ:  cpu time      0.4563: real time      0.4584
     EDDAV:  cpu time      0.1446: real time      0.1462
       DOS:  cpu time      0.0004: real time      0.0004
    CHARGE:  cpu time      0.0463: real time      0.0468
    MIXING:  cpu time      0.0117: real time      0.0118
    --------------------------------------------
      LOOP:  cpu time      1.2481: real time      1.2572

 eigenvalue-minimisations  :    52
 total energy-change (2. order) :-0.6396998E-02  (-0.1045664E-04)
 number of electron      13.9999988 magnetization       2.0000000
 augmentation part        7.2836195 magnetization      -0.1238482

 Broyden mixing:
  rms(total) = 0.39430E-02    rms(broyden)= 0.39430E-02
  rms(prec ) = 0.43621E-02
  weight for this iteration     100.00

 eigenvalues of (default mixing * dielectric matrix)
  average eigenvalue GAMMA=   1.0418
  2.4657  0.8715  0.8715  1.6864  1.1452  0.8116  0.7136  0.7136  0.6350  0.5034

 Free energy of the ion-electron system (eV)
  ---------------------------------------------------
  alpha Z        PSCENC =         0.18886148
  Ewald energy   TEWEN  =      -221.20727573
  -Hartree energ DENC   =     -1406.00626021
  -exchange      EXHF   =         0.00000000
  -V(xc)+E(xc)   XCENC  =        55.57115842
  PAW double counting   =      1596.26383705    -1633.58522923
  entropy T*S    EENTRO =        -0.03856177
  eigenvalues    EBANDS =      -284.98456552
  atomic energy  EATOM  =      1893.10662729
  Solvation  Ediel_sol  =         0.00000000
  ---------------------------------------------------
  free energy    TOTEN  =        -0.69140821 eV

  energy without entropy =       -0.65284644  energy(sigma->0) =       -0.67212732


--------------------------------------------------------------------------------------------------------




--------------------------------------- Iteration      1(  16)  ---------------------------------------


    POTLOK:  cpu time      0.6236: real time      0.6282
    SETDIJ:  cpu time      0.4549: real time      0.4571
     EDDAV:  cpu time      0.1612: real time      0.1628
       DOS:  cpu time      0.0004: real time      0.0004
    CHARGE:  cpu time      0.0461: real time      0.0466
    MIXING:  cpu time      0.0120: real time      0.0121
    --------------------------------------------
      LOOP:  cpu time      1.2982: real time      1.3073

 eigenvalue-minimisations  :    64
 total energy-change (2. order) :-0.1381874E-02  (-0.1425511E-05)
 number of electron      13.9999988 magnetization       2.0000000
 augmentation part        7.2836226 magnetization      -0.1238795

 Broyden mixing:
  rms(total) = 0.48726E-02    rms(broyden)= 0.48726E-02
  rms(prec ) = 0.53801E-02
  weight for this iteration     100.00

 eigenvalues of (default mixing * dielectric matrix)
  average eigenvalue GAMMA=   1.1133
  2.6201  1.1324  1.1324  0.8378  1.7224  1.1923  0.8692  0.7507  0.6968  0.6621
  0.6304

 Free energy of the ion-electron system (eV)
  ---------------------------------------------------
  alpha Z        PSCENC =         0.18886148
  Ewald energy   TEWEN  =      -221.20727573
  -Hartree energ DENC   =     -1406.01282063
  -exchange      EXHF   =         0.00000000
  -V(xc)+E(xc)   XCENC  =        55.56969148
  PAW double counting   =      1596.22594742    -1633.54617373
  entropy T*S    EENTRO =        -0.03856083
  eigenvalues    EBANDS =      -284.97908683
  atomic energy  EATOM  =      1893.10662729
  Solvation  Ediel_sol  =         0.00000000
  ---------------------------------------------------
  free energy    TOTEN  =        -0.69279008 eV

  energy without entropy =       -0.65422925  energy(sigma->0) =       -0.67350967


--------------------------------------------------------------------------------------------------------




--------------------------------------- Iteration      1(  17)  ---------------------------------------


    POTLOK:  cpu time      0.5720: real time      0.5765
    SETDIJ:  cpu time      0.4550: real time      0.4573
     EDDAV:  cpu time      0.1235: real time      0.1248
       DOS:  cpu time      0.0004: real time      0.0004
    CHARGE:  cpu time      0.0476: real time      0.0481
    MIXING:  cpu time      0.0121: real time      0.0122
    --------------------------------------------
      LOOP:  cpu time      1.2107: real time      1.2194

 eigenvalue-minimisations  :    40
 total energy-change (2. order) : 0.4123269E-03  (-0.2596130E-05)
 number of electron      13.9999988 magnetization       2.0000000
 augmentation part        7.2836167 magnetization      -0.1238607

 Broyden mixing:
  rms(total) = 0.34704E-02    rms(broyden)= 0.34704E-02
  rms(prec ) = 0.38742E-02
  weight for this iteration     100.00

 eigenvalues of (default mixing * dielectric matrix)
  average eigenvalue GAMMA=   1.0211
  2.6205  1.7219  1.1255  1.1255  0.8374  1.1923  0.8692  0.7509  0.6973  0.6618
  0.6305  0.0208

 Free energy of the ion-electron system (eV)
  ---------------------------------------------------
  alpha Z        PSCENC =         0.18886148
  Ewald energy   TEWEN  =      -221.20727573
  -Hartree energ DENC   =     -1406.00680162
  -exchange      EXHF   =         0.00000000
  -V(xc)+E(xc)   XCENC  =        55.57012494
  PAW double counting   =      1596.34306556    -1633.66100303
  entropy T*S    EENTRO =        -0.03856052
  eigenvalues    EBANDS =      -284.98741614
  atomic energy  EATOM  =      1893.10662729
  Solvation  Ediel_sol  =         0.00000000
  ---------------------------------------------------
  free energy    TOTEN  =        -0.69237776 eV

  energy without entropy =       -0.65381724  energy(sigma->0) =       -0.67309750


--------------------------------------------------------------------------------------------------------




--------------------------------------- Iteration      1(  18)  ---------------------------------------


    POTLOK:  cpu time      0.5652: real time      0.5696
    SETDIJ:  cpu time      0.4552: real time      0.4574
     EDDAV:  cpu time      0.1486: real time      0.1503
       DOS:  cpu time      0.0004: real time      0.0004
    CHARGE:  cpu time      0.0458: real time      0.0463
    MIXING:  cpu time      0.0126: real time      0.0127
    --------------------------------------------
      LOOP:  cpu time      1.2277: real time      1.2367

 eigenvalue-minimisations  :    56
 total energy-change (2. order) : 0.4043436E-04  (-0.1961596E-06)
 number of electron      13.9999988 magnetization       2.0000000
 augmentation part        7.2836182 magnetization      -0.1238588

 Broyden mixing:
  rms(total) = 0.36543E-02    rms(broyden)= 0.36543E-02
  rms(prec ) = 0.40655E-02
  weight for this iteration     100.00

 eigenvalues of (default mixing * dielectric matrix)
  average eigenvalue GAMMA=   1.1734
  2.7833  2.0637  1.8293  1.0894  0.8571  0.8964  1.2529  0.9889  0.7492  0.7492
  0.7314  0.6318  0.6318

 Free energy of the ion-electron system (eV)
  ---------------------------------------------------
  alpha Z        PSCENC =         0.18886148
  Ewald energy   TEWEN  =      -221.20727573
  -Hartree energ DENC   =     -1406.00639716
  -exchange      EXHF   =         0.00000000
  -V(xc)+E(xc)   XCENC  =        55.57018258
  PAW double counting   =      1596.35788794    -1633.67542106
  entropy T*S    EENTRO =        -0.03856178
  eigenvalues    EBANDS =      -284.98824089
  atomic energy  EATOM  =      1893.10662729
  Solvation  Ediel_sol  =         0.00000000
  ---------------------------------------------------
  free energy    TOTEN  =        -0.69233732 eV

  energy without entropy =       -0.65377554  energy(sigma->0) =       -0.67305643


--------------------------------------------------------------------------------------------------------




--------------------------------------- Iteration      1(  19)  ---------------------------------------


    POTLOK:  cpu time      0.6190: real time      0.6236
    SETDIJ:  cpu time      0.4556: real time      0.4579
     EDDAV:  cpu time      0.1240: real time      0.1253
       DOS:  cpu time      0.0004: real time      0.0004
    CHARGE:  cpu time      0.0494: real time      0.0500
    MIXING:  cpu time      0.0127: real time      0.0127
    --------------------------------------------
      LOOP:  cpu time      1.2611: real time      1.2698

 eigenvalue-minimisations  :    40
 total energy-change (2. order) :-0.2058409E-03  (-0.3312398E-05)
 number of electron      13.9999988 magnetization       2.0000000
 augmentation part        7.2835791 magnetization      -0.1238917

 Broyden mixing:
  rms(total) = 0.25930E-02    rms(broyden)= 0.25929E-02
  rms(prec ) = 0.29065E-02
  weight for this iteration     100.00

 eigenvalues of (default mixing * dielectric matrix)
  average eigenvalue GAMMA=   1.2233
  2.6968  2.8222  2.0359  0.8470  0.9693  0.9693  1.3585  1.1465  0.8546  0.7543
  0.7543  0.6390  0.6390  0.6401

 Free energy of the ion-electron system (eV)
  ---------------------------------------------------
  alpha Z        PSCENC =         0.18886148
  Ewald energy   TEWEN  =      -221.20727573
  -Hartree energ DENC   =     -1406.00516614
  -exchange      EXHF   =         0.00000000
  -V(xc)+E(xc)   XCENC  =        55.56989183
  PAW double counting   =      1596.36241922    -1633.67907906
  entropy T*S    EENTRO =        -0.03856495
  eigenvalues    EBANDS =      -284.99025711
  atomic energy  EATOM  =      1893.10662729
  Solvation  Ediel_sol  =         0.00000000
  ---------------------------------------------------
  free energy    TOTEN  =        -0.69254316 eV

  energy without entropy =       -0.65397821  energy(sigma->0) =       -0.67326069


--------------------------------------------------------------------------------------------------------




--------------------------------------- Iteration      1(  20)  ---------------------------------------


    POTLOK:  cpu time      0.5759: real time      0.5805
    SETDIJ:  cpu time      0.4551: real time      0.4574
     EDDAV:  cpu time      0.1346: real time      0.1361
       DOS:  cpu time      0.0005: real time      0.0005
    CHARGE:  cpu time      0.0486: real time      0.0491
    MIXING:  cpu time      0.0128: real time      0.0129
    --------------------------------------------
      LOOP:  cpu time      1.2275: real time      1.2365

 eigenvalue-minimisations  :    48
 total energy-change (2. order) :-0.1554050E-02  (-0.2422250E-05)
 number of electron      13.9999988 magnetization       2.0000000
 augmentation part        7.2835997 magnetization      -0.1239305

 Broyden mixing:
  rms(total) = 0.11035E-02    rms(broyden)= 0.11035E-02
  rms(prec ) = 0.12792E-02
  weight for this iteration     100.00

 eigenvalues of (default mixing * dielectric matrix)
  average eigenvalue GAMMA=   1.2761
  2.9038  2.9361  2.5006  0.8464  0.9811  0.9811  1.5778  1.2287  0.9902  0.8047
  0.7497  0.7497  0.6425  0.6241  0.6241

 Free energy of the ion-electron system (eV)
  ---------------------------------------------------
  alpha Z        PSCENC =         0.18886148
  Ewald energy   TEWEN  =      -221.20727573
  -Hartree energ DENC   =     -1406.01522807
  -exchange      EXHF   =         0.00000000
  -V(xc)+E(xc)   XCENC  =        55.56827761
  PAW double counting   =      1596.24795609    -1633.56691906
  entropy T*S    EENTRO =        -0.03856544
  eigenvalues    EBANDS =      -284.97783139
  atomic energy  EATOM  =      1893.10662729
  Solvation  Ediel_sol  =         0.00000000
  ---------------------------------------------------
  free energy    TOTEN  =        -0.69409721 eV

  energy without entropy =       -0.65553178  energy(sigma->0) =       -0.67481449


--------------------------------------------------------------------------------------------------------




--------------------------------------- Iteration      1(  21)  ---------------------------------------


    POTLOK:  cpu time      0.6497: real time      0.6545
    SETDIJ:  cpu time      0.4559: real time      0.4584
     EDDAV:  cpu time      0.1383: real time      0.1396
       DOS:  cpu time      0.0004: real time      0.0004
    CHARGE:  cpu time      0.0458: real time      0.0463
    MIXING:  cpu time      0.0130: real time      0.0131
    --------------------------------------------
      LOOP:  cpu time      1.3031: real time      1.3123

 eigenvalue-minimisations  :    48
 total energy-change (2. order) :-0.3110723E-02  (-0.4454798E-05)
 number of electron      13.9999988 magnetization       2.0000000
 augmentation part        7.2836812 magnetization      -0.1240174

 Broyden mixing:
  rms(total) = 0.93097E-03    rms(broyden)= 0.93096E-03
  rms(prec ) = 0.10616E-02
  weight for this iteration     100.00

 eigenvalues of (default mixing * dielectric matrix)
  average eigenvalue GAMMA=   1.2580
  2.9369  3.1919  2.5447  0.8465  0.9913  0.9913  1.6289  1.2506  1.0238  0.8302
  0.7551  0.7432  0.6386  0.6143  0.6143  0.5272

 Free energy of the ion-electron system (eV)
  ---------------------------------------------------
  alpha Z        PSCENC =         0.18886148
  Ewald energy   TEWEN  =      -221.20727573
  -Hartree energ DENC   =     -1406.03902971
  -exchange      EXHF   =         0.00000000
  -V(xc)+E(xc)   XCENC  =        55.56512392
  PAW double counting   =      1596.04528810    -1633.36619713
  entropy T*S    EENTRO =        -0.03856533
  eigenvalues    EBANDS =      -284.95204084
  atomic energy  EATOM  =      1893.10662729
  Solvation  Ediel_sol  =         0.00000000
  ---------------------------------------------------
  free energy    TOTEN  =        -0.69720794 eV

  energy without entropy =       -0.65864261  energy(sigma->0) =       -0.67792527


--------------------------------------------------------------------------------------------------------




--------------------------------------- Iteration      1(  22)  ---------------------------------------


    POTLOK:  cpu time      0.5900: real time      0.5930
    SETDIJ:  cpu time      0.4565: real time      0.4588
     EDDAV:  cpu time      0.1549: real time      0.1564
       DOS:  cpu time      0.0004: real time      0.0004
    CHARGE:  cpu time      0.0450: real time      0.0456
    MIXING:  cpu time      0.0134: real time      0.0135
    --------------------------------------------
      LOOP:  cpu time      1.2603: real time      1.2679

 eigenvalue-minimisations  :    60
 total energy-change (2. order) :-0.4863758E-03  (-0.4760026E-06)
 number of electron      13.9999988 magnetization       2.0000000
 augmentation part        7.2837158 magnetization      -0.1240450

 Broyden mixing:
  rms(total) = 0.12731E-02    rms(broyden)= 0.12731E-02
  rms(prec ) = 0.14293E-02
  weight for this iteration     100.00

 eigenvalues of (default mixing * dielectric matrix)
  average eigenvalue GAMMA=   1.2811
  3.6194  2.8541  2.5947  1.7127  0.9460  0.9460  0.8470  0.9591  1.2730  1.0918
  0.8744  0.7623  0.7365  0.6598  0.6598  0.6210  0.6210

 Free energy of the ion-electron system (eV)
  ---------------------------------------------------
  alpha Z        PSCENC =         0.18886148
  Ewald energy   TEWEN  =      -221.20727573
  -Hartree energ DENC   =     -1406.04538440
  -exchange      EXHF   =         0.00000000
  -V(xc)+E(xc)   XCENC  =        55.56467667
  PAW double counting   =      1596.04106988    -1633.36143607
  entropy T*S    EENTRO =        -0.03856512
  eigenvalues    EBANDS =      -284.94626832
  atomic energy  EATOM  =      1893.10662729
  Solvation  Ediel_sol  =         0.00000000
  ---------------------------------------------------
  free energy    TOTEN  =        -0.69769431 eV

  energy without entropy =       -0.65912919  energy(sigma->0) =       -0.67841175


--------------------------------------------------------------------------------------------------------




--------------------------------------- Iteration      1(  23)  ---------------------------------------


    POTLOK:  cpu time      0.5822: real time      0.5866
    SETDIJ:  cpu time      0.4558: real time      0.4580
     EDDAV:  cpu time      0.1400: real time      0.1414
       DOS:  cpu time      0.0004: real time      0.0004
    CHARGE:  cpu time      0.0462: real time      0.0468
    MIXING:  cpu time      0.0134: real time      0.0135
    --------------------------------------------
      LOOP:  cpu time      1.2378: real time      1.2467

 eigenvalue-minimisations  :    52
 total energy-change (2. order) :-0.1043409E-03  (-0.3304038E-06)
 number of electron      13.9999988 magnetization       2.0000000
 augmentation part        7.2837172 magnetization      -0.1240541

 Broyden mixing:
  rms(total) = 0.91443E-03    rms(broyden)= 0.91443E-03
  rms(prec ) = 0.10353E-02
  weight for this iteration     100.00

 eigenvalues of (default mixing * dielectric matrix)
  average eigenvalue GAMMA=   1.2686
  3.8030  2.8811  2.5939  1.7274  0.8468  0.9758  1.0158  1.0158  1.3021  1.0722
  0.8892  0.7540  0.7540  0.6849  0.6849  0.6403  0.5965  0.5965

 Free energy of the ion-electron system (eV)
  ---------------------------------------------------
  alpha Z        PSCENC =         0.18886148
  Ewald energy   TEWEN  =      -221.20727573
  -Hartree energ DENC   =     -1406.04597916
  -exchange      EXHF   =         0.00000000
  -V(xc)+E(xc)   XCENC  =        55.56451441
  PAW double counting   =      1596.01427061    -1633.33461430
  entropy T*S    EENTRO =        -0.03856545
  eigenvalues    EBANDS =      -284.94563782
  atomic energy  EATOM  =      1893.10662729
  Solvation  Ediel_sol  =         0.00000000
  ---------------------------------------------------
  free energy    TOTEN  =        -0.69779865 eV

  energy without entropy =       -0.65923320  energy(sigma->0) =       -0.67851593


--------------------------------------------------------------------------------------------------------




--------------------------------------- Iteration      1(  24)  ---------------------------------------


    POTLOK:  cpu time      0.5885: real time      0.5931
    SETDIJ:  cpu time      0.4558: real time      0.4582
     EDDAV:  cpu time      0.1292: real time      0.1305
       DOS:  cpu time      0.0004: real time      0.0004
    CHARGE:  cpu time      0.0458: real time      0.0463
    MIXING:  cpu time      0.0136: real time      0.0137
    --------------------------------------------
      LOOP:  cpu time      1.2333: real time      1.2422

 eigenvalue-minimisations  :    44
 total energy-change (2. order) :-0.3023889E-03  (-0.1596882E-06)
 number of electron      13.9999988 magnetization       2.0000000
 augmentation part        7.2837319 magnetization      -0.1240651

 Broyden mixing:
  rms(total) = 0.10995E-02    rms(broyden)= 0.10995E-02
  rms(prec ) = 0.12272E-02
  weight for this iteration     100.00

 eigenvalues of (default mixing * dielectric matrix)
  average eigenvalue GAMMA=   1.2319
  3.8330  2.8676  2.5818  1.7357  1.0272  1.0272  0.9751  0.8468  1.3068  1.0836
  0.9201  0.7633  0.7633  0.7003  0.6738  0.6437  0.6051  0.6051  0.4473

 Free energy of the ion-electron system (eV)
  ---------------------------------------------------
  alpha Z        PSCENC =         0.18886148
  Ewald energy   TEWEN  =      -221.20727573
  -Hartree energ DENC   =     -1406.05128779
  -exchange      EXHF   =         0.00000000
  -V(xc)+E(xc)   XCENC  =        55.56427463
  PAW double counting   =      1596.02427072    -1633.34424443
  entropy T*S    EENTRO =        -0.03856554
  eigenvalues    EBANDS =      -284.94076168
  atomic energy  EATOM  =      1893.10662729
  Solvation  Ediel_sol  =         0.00000000
  ---------------------------------------------------
  free energy    TOTEN  =        -0.69810104 eV

  energy without entropy =       -0.65953550  energy(sigma->0) =       -0.67881827


--------------------------------------------------------------------------------------------------------




--------------------------------------- Iteration      1(  25)  ---------------------------------------


    POTLOK:  cpu time      0.5739: real time      0.5784
    SETDIJ:  cpu time      0.4564: real time      0.4590
     EDDAV:  cpu time      0.1308: real time      0.1322
       DOS:  cpu time      0.0004: real time      0.0004
    CHARGE:  cpu time      0.0489: real time      0.0490
    MIXING:  cpu time      0.0140: real time      0.0141
    --------------------------------------------
      LOOP:  cpu time      1.2243: real time      1.2331

 eigenvalue-minimisations  :    48
 total energy-change (2. order) :-0.3050514E-04  (-0.1886555E-07)
 number of electron      13.9999988 magnetization       2.0000000
 augmentation part        7.2837369 magnetization      -0.1240741

 Broyden mixing:
  rms(total) = 0.11663E-02    rms(broyden)= 0.11663E-02
  rms(prec ) = 0.12996E-02
  weight for this iteration     100.00

 eigenvalues of (default mixing * dielectric matrix)
  average eigenvalue GAMMA=   1.2866
  4.1124  2.6862  2.5877  1.5857  1.8243  1.1547  0.8466  0.9829  0.9201  1.3769
  1.0948  0.9238  0.9238  0.7554  0.7427  0.7427  0.6341  0.6341  0.6017  0.6017

 Free energy of the ion-electron system (eV)
  ---------------------------------------------------
  alpha Z        PSCENC =         0.18886148
  Ewald energy   TEWEN  =      -221.20727573
  -Hartree energ DENC   =     -1406.05207671
  -exchange      EXHF   =         0.00000000
  -V(xc)+E(xc)   XCENC  =        55.56425978
  PAW double counting   =      1596.02420623    -1633.34418120
  entropy T*S    EENTRO =        -0.03856554
  eigenvalues    EBANDS =      -284.93998717
  atomic energy  EATOM  =      1893.10662729
  Solvation  Ediel_sol  =         0.00000000
  ---------------------------------------------------
  free energy    TOTEN  =        -0.69813155 eV

  energy without entropy =       -0.65956601  energy(sigma->0) =       -0.67884878


--------------------------------------------------------------------------------------------------------




--------------------------------------- Iteration      1(  26)  ---------------------------------------


    POTLOK:  cpu time      0.5815: real time      0.5857
    SETDIJ:  cpu time      0.4563: real time      0.4585
     EDDAV:  cpu time      0.1293: real time      0.1307
       DOS:  cpu time      0.0004: real time      0.0004
    CHARGE:  cpu time      0.0493: real time      0.0497
    MIXING:  cpu time      0.0145: real time      0.0146
    --------------------------------------------
      LOOP:  cpu time      1.2312: real time      1.2397

 eigenvalue-minimisations  :    44
 total energy-change (2. order) :-0.2228029E-03  (-0.3528163E-06)
 number of electron      13.9999988 magnetization       2.0000000
 augmentation part        7.2837504 magnetization      -0.1240766

 Broyden mixing:
  rms(total) = 0.86164E-03    rms(broyden)= 0.86164E-03
  rms(prec ) = 0.97064E-03
  weight for this iteration     100.00

 eigenvalues of (default mixing * dielectric matrix)
  average eigenvalue GAMMA=   1.3376
  4.6700  2.5807  2.6752  2.1229  1.9925  1.0662  0.8466  1.0014  0.9202  1.5772
  1.1866  1.1866  0.9391  0.7768  0.7584  0.6939  0.6939  0.6150  0.6150  0.5860
  0.5860

 Free energy of the ion-electron system (eV)
  ---------------------------------------------------
  alpha Z        PSCENC =         0.18886148
  Ewald energy   TEWEN  =      -221.20727573
  -Hartree energ DENC   =     -1406.05522189
  -exchange      EXHF   =         0.00000000
  -V(xc)+E(xc)   XCENC  =        55.56402176
  PAW double counting   =      1596.05973924    -1633.37932679
  entropy T*S    EENTRO =        -0.03856549
  eigenvalues    EBANDS =      -284.93721423
  atomic energy  EATOM  =      1893.10662729
  Solvation  Ediel_sol  =         0.00000000
  ---------------------------------------------------
  free energy    TOTEN  =        -0.69835435 eV

  energy without entropy =       -0.65978886  energy(sigma->0) =       -0.67907160


--------------------------------------------------------------------------------------------------------




--------------------------------------- Iteration      1(  27)  ---------------------------------------


    POTLOK:  cpu time      0.5736: real time      0.5781
    SETDIJ:  cpu time      0.4560: real time      0.4582
     EDDAV:  cpu time      0.1340: real time      0.1355
       DOS:  cpu time      0.0004: real time      0.0004
    CHARGE:  cpu time      0.0457: real time      0.0462
    MIXING:  cpu time      0.0146: real time      0.0148
    --------------------------------------------
      LOOP:  cpu time      1.2242: real time      1.2332

 eigenvalue-minimisations  :    48
 total energy-change (2. order) :-0.3601052E-03  (-0.4435186E-06)
 number of electron      13.9999988 magnetization       2.0000000
 augmentation part        7.2837743 magnetization      -0.1240807

 Broyden mixing:
  rms(total) = 0.41971E-03    rms(broyden)= 0.41971E-03
  rms(prec ) = 0.48440E-03
  weight for this iteration     100.00

 eigenvalues of (default mixing * dielectric matrix)
  average eigenvalue GAMMA=   1.3660
  5.2665  2.4114  2.4114  2.7613  1.8588  1.8588  1.0452  1.0145  0.8466  0.9032
  1.3583  1.1552  1.0271  0.7929  0.7647  0.7647  0.6900  0.6900  0.6331  0.6018
  0.5982  0.5982

 Free energy of the ion-electron system (eV)
  ---------------------------------------------------
  alpha Z        PSCENC =         0.18886148
  Ewald energy   TEWEN  =      -221.20727573
  -Hartree energ DENC   =     -1406.06685411
  -exchange      EXHF   =         0.00000000
  -V(xc)+E(xc)   XCENC  =        55.56383831
  PAW double counting   =      1596.05994763    -1633.37942270
  entropy T*S    EENTRO =        -0.03856555
  eigenvalues    EBANDS =      -284.92587108
  atomic energy  EATOM  =      1893.10662729
  Solvation  Ediel_sol  =         0.00000000
  ---------------------------------------------------
  free energy    TOTEN  =        -0.69871445 eV

  energy without entropy =       -0.66014890  energy(sigma->0) =       -0.67943168


--------------------------------------------------------------------------------------------------------




--------------------------------------- Iteration      1(  28)  ---------------------------------------


    POTLOK:  cpu time      0.5911: real time      0.5958
    SETDIJ:  cpu time      0.4565: real time      0.4588
     EDDAV:  cpu time      0.1293: real time      0.1307
       DOS:  cpu time      0.0004: real time      0.0004
    CHARGE:  cpu time      0.0481: real time      0.0487
    MIXING:  cpu time      0.0146: real time      0.0148
    --------------------------------------------
      LOOP:  cpu time      1.2401: real time      1.2492

 eigenvalue-minimisations  :    44
 total energy-change (2. order) :-0.3147685E-04  (-0.2832978E-06)
 number of electron      13.9999988 magnetization       2.0000000
 augmentation part        7.2837796 magnetization      -0.1240863

 Broyden mixing:
  rms(total) = 0.31655E-03    rms(broyden)= 0.31655E-03
  rms(prec ) = 0.36509E-03
  weight for this iteration     100.00

 eigenvalues of (default mixing * dielectric matrix)
  average eigenvalue GAMMA=   1.3247
  5.2642  2.4319  2.4319  2.7378  1.8438  1.8438  1.0384  1.0197  0.8467  0.9004
  1.3372  1.1583  1.0214  0.6896  0.6896  0.7751  0.7484  0.7484  0.6261  0.6261
  0.6344  0.6015  0.4524

 Free energy of the ion-electron system (eV)
  ---------------------------------------------------
  alpha Z        PSCENC =         0.18886148
  Ewald energy   TEWEN  =      -221.20727573
  -Hartree energ DENC   =     -1406.07602250
  -exchange      EXHF   =         0.00000000
  -V(xc)+E(xc)   XCENC  =        55.56401616
  PAW double counting   =      1596.03178703    -1633.35097508
  entropy T*S    EENTRO =        -0.03856557
  eigenvalues    EBANDS =      -284.91719902
  atomic energy  EATOM  =      1893.10662729
  Solvation  Ediel_sol  =         0.00000000
  ---------------------------------------------------
  free energy    TOTEN  =        -0.69874593 eV

  energy without entropy =       -0.66018037  energy(sigma->0) =       -0.67946315


--------------------------------------------------------------------------------------------------------




--------------------------------------- Iteration      1(  29)  ---------------------------------------


    POTLOK:  cpu time      0.5775: real time      0.5819
    SETDIJ:  cpu time      0.4563: real time      0.4586
     EDDAV:  cpu time      0.1456: real time      0.1470
       DOS:  cpu time      0.0004: real time      0.0004
    CHARGE:  cpu time      0.0456: real time      0.0461
    MIXING:  cpu time      0.0151: real time      0.0152
    --------------------------------------------
      LOOP:  cpu time      1.2405: real time      1.2493

 eigenvalue-minimisations  :    56
 total energy-change (2. order) :-0.2147147E-04  (-0.8941457E-07)
 number of electron      13.9999988 magnetization       2.0000000
 augmentation part        7.2837740 magnetization      -0.1240878

 Broyden mixing:
  rms(total) = 0.48947E-03    rms(broyden)= 0.48947E-03
  rms(prec ) = 0.54847E-03
  weight for this iteration     100.00

 eigenvalues of (default mixing * dielectric matrix)
  average eigenvalue GAMMA=   1.3102
  5.3255  2.4289  2.4289  2.7252  1.8726  1.8726  1.0403  1.0181  0.8466  0.9010
  1.4411  1.1520  1.0593  0.8631  0.8631  0.7589  0.7589  0.7425  0.6336  0.6336
  0.6266  0.6040  0.5642  0.2845

 Free energy of the ion-electron system (eV)
  ---------------------------------------------------
  alpha Z        PSCENC =         0.18886148
  Ewald energy   TEWEN  =      -221.20727573
  -Hartree energ DENC   =     -1406.07875411
  -exchange      EXHF   =         0.00000000
  -V(xc)+E(xc)   XCENC  =        55.56405598
  PAW double counting   =      1596.03593389    -1633.35474755
  entropy T*S    EENTRO =        -0.03856557
  eigenvalues    EBANDS =      -284.91490310
  atomic energy  EATOM  =      1893.10662729
  Solvation  Ediel_sol  =         0.00000000
  ---------------------------------------------------
  free energy    TOTEN  =        -0.69876740 eV

  energy without entropy =       -0.66020183  energy(sigma->0) =       -0.67948462


--------------------------------------------------------------------------------------------------------




--------------------------------------- Iteration      1(  30)  ---------------------------------------


    POTLOK:  cpu time      0.5696: real time      0.5738
    SETDIJ:  cpu time      0.4561: real time      0.4584
     EDDAV:  cpu time      0.1455: real time      0.1469
       DOS:  cpu time      0.0004: real time      0.0004
    --------------------------------------------
      LOOP:  cpu time      1.1715: real time      1.1795

 eigenvalue-minimisations  :    56
 total energy-change (2. order) :-0.4108431E-05  (-0.7480393E-07)
 number of electron      13.9999988 magnetization       2.0000000
 augmentation part        7.2837740 magnetization      -0.1240878

 Free energy of the ion-electron system (eV)
  ---------------------------------------------------
  alpha Z        PSCENC =         0.18886148
  Ewald energy   TEWEN  =      -221.20727573
  -Hartree energ DENC   =     -1406.08332758
  -exchange      EXHF   =         0.00000000
  -V(xc)+E(xc)   XCENC  =        55.56417810
  PAW double counting   =      1596.02686480    -1633.34539989
  entropy T*S    EENTRO =        -0.03856558
  eigenvalues    EBANDS =      -284.91073441
  atomic energy  EATOM  =      1893.10662729
  Solvation  Ediel_sol  =         0.00000000
  ---------------------------------------------------
  free energy    TOTEN  =        -0.69877151 eV

  energy without entropy =       -0.66020593  energy(sigma->0) =       -0.67948872


--------------------------------------------------------------------------------------------------------




 average (electrostatic) potential at core
  the test charge radii are     1.0894
  (the norm of the test charge is              1.0000)
       1-111.2797
 
 
 
 E-fermi :  -4.0812     XC(G=0):  -0.2385     alpha+bet : -0.0610

 Fermi energy:        -4.0811825716

 spin component 1

 k-point     1 :       0.0000    0.0000    0.0000
  band No.  band energies     occupation 
      1     -25.6932      1.00000
      2     -25.6931      1.00000
      3     -25.6927      1.00000
      4     -25.6923      1.00000
      5     -25.6922      1.00000
      6     -10.9095      1.00000
      7      -4.0964      0.66682
      8      -4.0964      0.66662
      9      -4.0964      0.66656
     10      -0.5319      0.00000
     11       0.1046      0.00000
     12       0.2295      0.00000
 Fermi energy:        -4.0811825716

 spin component 2

 k-point     1 :       0.0000    0.0000    0.0000
  band No.  band energies     occupation 
      1     -25.5261      1.00000
      2     -25.5260      1.00000
      3     -25.5254      1.00000
      4     -25.5249      1.00000
      5     -25.5248      1.00000
      6      -9.7179      1.00000
      7      -2.8026      0.00000
      8      -2.8010      0.00000
      9      -2.7993      0.00000
     10      -0.0671      0.00000
     11       0.4279      0.00000
     12       0.4418      0.00000


--------------------------------------------------------------------------------------------------------


 soft charge-density along one line, spin component           1
         0         1         2         3         4         5         6         7         8         9
 total charge-density along one line
 
 soft charge-density along one line, spin component           2
         0         1         2         3         4         5         6         7         8         9
 total charge-density along one line
 
 pseudopotential strength for first ion, spin component:           1
-25.307  -0.000   0.000   0.000  -0.000   7.719   0.000  -0.000
 -0.000 -25.307   0.000  -0.000  -0.000   0.000   7.719  -0.000
  0.000   0.000 -25.307  -0.000   0.000  -0.000  -0.000   7.719
  0.000  -0.000  -0.000 -25.307  -0.000  -0.000   0.000   0.000
 -0.000  -0.000   0.000  -0.000 -25.307   0.000   0.000  -0.000
  7.719   0.000  -0.000  -0.000   0.000   2.349  -0.000   0.000
  0.000   7.719  -0.000   0.000   0.000  -0.000   2.349   0.000
 -0.000  -0.000   7.719   0.000  -0.000   0.000   0.000   2.349
 -0.000   0.000   0.000   7.719   0.000   0.000  -0.000  -0.000
  0.000   0.000  -0.000   0.000   7.719  -0.000  -0.000   0.000
 -0.000   0.000  -0.000   0.000  -0.000   0.000  -0.000   0.000
  0.000  -0.000   0.000  -0.000   0.000  -0.000   0.000  -0.000
 -0.000   0.000  -0.000  -0.000   0.000  -0.000  -0.000   0.000
 -0.000   0.000   0.000  -0.000  -0.000  -0.000   0.000  -0.000
  0.000  -0.000   0.000   0.000  -0.000  -0.000  -0.000   0.000
 -0.000   0.000   0.000  -0.000   0.000  -0.000  -0.000  -0.000
 -0.000  -0.000   0.000  -0.000  -0.000  -0.000   0.000  -0.000
  0.000  -0.000   0.000   0.000  -0.000  -0.000  -0.000   0.000
 pseudopotential strength for first ion, spin component:           2
-25.281  -0.000   0.000   0.000   0.000   7.689   0.000  -0.000
 -0.000 -25.281   0.000  -0.000  -0.000   0.000   7.689  -0.000
  0.000   0.000 -25.281  -0.000   0.000  -0.000  -0.000   7.689
  0.000  -0.000  -0.000 -25.281  -0.000  -0.000   0.000   0.000
  0.000  -0.000   0.000  -0.000 -25.281  -0.000   0.000  -0.000
  7.689   0.000  -0.000  -0.000  -0.000   2.331  -0.000   0.000
  0.000   7.689  -0.000   0.000   0.000  -0.000   2.331   0.000
 -0.000  -0.000   7.689   0.000  -0.000   0.000   0.000   2.331
 -0.000   0.000   0.000   7.689   0.000   0.000  -0.000  -0.000
 -0.000   0.000  -0.000   0.000   7.689   0.000  -0.000   0.000
 -0.000   0.000   0.000   0.000  -0.000   0.000  -0.000  -0.000
  0.000  -0.000  -0.000  -0.000   0.000  -0.000   0.000   0.000
 -0.000  -0.000  -0.000   0.000  -0.000  -0.000  -0.000  -0.000
  0.000   0.000  -0.000  -0.000   0.000   0.000   0.000  -0.000
  0.000   0.000   0.000  -0.000  -0.000   0.000   0.000  -0.000
 -0.000  -0.000  -0.000   0.000  -0.000  -0.000  -0.000  -0.000
  0.000   0.000  -0.000  -0.000   0.000   0.000   0.000  -0.000
  0.000   0.000   0.000  -0.000  -0.000   0.000   0.000   0.000
 total augmentation occupancy for first ion, spin component:           1
  2.000  -0.000  -0.000  -0.000  -0.000  -0.000   0.000  -0.000  -0.000   0.000  -0.000  -0.000  -0.000  -0.000   0.000   0.000
 -0.000   2.000  -0.000   0.000   0.000  -0.000  -0.000  -0.000   0.000   0.000   0.000   0.000   0.000  -0.000   0.000  -0.000
 -0.000  -0.000   2.000  -0.000   0.000  -0.000  -0.000  -0.000   0.000   0.000  -0.000  -0.000  -0.000   0.000  -0.000   0.000
 -0.000   0.000  -0.000   2.000  -0.000  -0.000   0.000  -0.000  -0.000  -0.000  -0.000  -0.000  -0.000  -0.000   0.000   0.000
 -0.000   0.000   0.000  -0.000   2.000  -0.000   0.000  -0.000  -0.000  -0.000   0.000   0.000  -0.000   0.000  -0.000   0.000
 -0.000  -0.000  -0.000  -0.000  -0.000   0.000  -0.000   0.000   0.000  -0.000   0.000  -0.000  -0.000   0.000  -0.000   0.000
  0.000  -0.000  -0.000   0.000   0.000  -0.000   0.000   0.000  -0.000  -0.000  -0.000   0.000  -0.000  -0.000  -0.000   0.000
 -0.000  -0.000  -0.000  -0.000  -0.000   0.000   0.000   0.000  -0.000   0.000  -0.000   0.000   0.000  -0.000  -0.000  -0.000
 -0.000   0.000   0.000  -0.000  -0.000   0.000  -0.000  -0.000   0.000  -0.000   0.000  -0.000  -0.000  -0.000  -0.000  -0.000
  0.000   0.000   0.000  -0.000  -0.000  -0.000  -0.000   0.000  -0.000   0.000   0.000  -0.000   0.000  -0.000  -0.000  -0.000
 -0.000   0.000  -0.000  -0.000   0.000   0.000  -0.000  -0.000   0.000   0.000   2.006   0.002   0.000   0.000  -0.000  -0.000
 -0.000   0.000  -0.000  -0.000   0.000  -0.000   0.000   0.000  -0.000  -0.000   0.002   0.000  -0.000   0.000   0.000  -0.000
 -0.000   0.000  -0.000  -0.000  -0.000  -0.000  -0.000   0.000  -0.000   0.000   0.000  -0.000   0.812  -0.000  -0.000  -0.044
 -0.000  -0.000   0.000  -0.000   0.000   0.000  -0.000  -0.000  -0.000  -0.000   0.000   0.000  -0.000   0.812  -0.000  -0.000
  0.000   0.000  -0.000   0.000  -0.000  -0.000  -0.000  -0.000  -0.000  -0.000  -0.000   0.000  -0.000  -0.000   0.813   0.000
  0.000  -0.000   0.000   0.000   0.000   0.000   0.000  -0.000  -0.000  -0.000  -0.000  -0.000  -0.044  -0.000   0.000   0.002
  0.000   0.000  -0.000   0.000  -0.000  -0.000   0.000   0.000   0.000   0.000  -0.000   0.000   0.000  -0.044   0.000   0.000
 -0.000  -0.000   0.000  -0.000   0.000   0.000  -0.000   0.000   0.000   0.000   0.000  -0.000   0.000   0.000  -0.044  -0.000
 total augmentation occupancy for first ion, spin component:           2
  0.006  -0.000   0.000   0.000  -0.000   0.012  -0.000   0.000   0.000  -0.000  -0.000  -0.000   0.000  -0.000  -0.000   0.000
 -0.000   0.006   0.000  -0.000  -0.000   0.000   0.012   0.000  -0.000  -0.000   0.000   0.000  -0.000  -0.000   0.000   0.000
  0.000   0.000   0.006  -0.000   0.000   0.000   0.000   0.012  -0.000   0.000   0.000   0.000   0.000  -0.000   0.000  -0.000
  0.000  -0.000  -0.000   0.006  -0.000   0.000  -0.000  -0.000   0.012  -0.000  -0.000  -0.000   0.000  -0.000   0.000  -0.000
 -0.000  -0.000   0.000  -0.000   0.006   0.000  -0.000   0.000  -0.000   0.012  -0.000   0.000   0.000   0.000  -0.000  -0.000
  0.012   0.000   0.000   0.000   0.000  -0.000  -0.000  -0.000  -0.000  -0.000  -0.000   0.000  -0.000   0.000  -0.000   0.000
 -0.000   0.012   0.000  -0.000  -0.000  -0.000  -0.000  -0.000   0.000   0.000   0.000   0.000  -0.000  -0.000  -0.000   0.000
  0.000   0.000   0.012  -0.000   0.000  -0.000  -0.000  -0.000  -0.000   0.000   0.000  -0.000   0.000  -0.000  -0.000  -0.000
  0.000  -0.000  -0.000   0.012  -0.000  -0.000   0.000  -0.000  -0.000  -0.000  -0.000   0.000  -0.000  -0.000  -0.000   0.000
 -0.000  -0.000   0.000  -0.000   0.012  -0.000   0.000   0.000  -0.000  -0.000  -0.000   0.000   0.000  -0.000  -0.000  -0.000
 -0.000   0.000   0.000  -0.000  -0.000  -0.000   0.000   0.000  -0.000  -0.000   0.047   0.028   0.000  -0.000   0.000  -0.000
 -0.000   0.000   0.000  -0.000   0.000   0.000   0.000  -0.000   0.000   0.000   0.028   0.000  -0.000   0.000   0.000  -0.000
  0.000  -0.000   0.000   0.000   0.000  -0.000  -0.000   0.000  -0.000   0.000   0.000  -0.000   0.812  -0.000  -0.000  -0.044
 -0.000  -0.000  -0.000  -0.000   0.000   0.000  -0.000  -0.000  -0.000  -0.000  -0.000   0.000  -0.000   0.812  -0.000  -0.000
 -0.000   0.000   0.000   0.000  -0.000  -0.000  -0.000  -0.000  -0.000  -0.000   0.000   0.000  -0.000  -0.000   0.813   0.000
  0.000   0.000  -0.000  -0.000  -0.000   0.000   0.000  -0.000   0.000  -0.000  -0.000  -0.000  -0.044  -0.000   0.000   0.002
  0.000   0.000   0.000   0.000  -0.000   0.000   0.000   0.000   0.000   0.000   0.000  -0.000   0.000  -0.044   0.000   0.000
 -0.000  -0.000  -0.000  -0.000   0.000   0.000  -0.000   0.000  -0.000   0.000  -0.000   0.000   0.000   0.000  -0.044  -0.000


------------------------ aborting loop because EDIFF is reached ----------------------------------------


    CHARGE:  cpu time      0.0459: real time      0.0465
    FORLOC:  cpu time      0.0037: real time      0.0037
    FORNL :  cpu time      0.0096: real time      0.0096
    STRESS:  cpu time      0.0371: real time      0.0374
    FORCOR:  cpu time      0.5597: real time      0.5635
    FORHAR:  cpu time      0.0577: real time      0.0582
    MIXING:  cpu time      0.0164: real time      0.0165
    OFIELD:  cpu time      0.0001: real time      0.0001

  FORCE on cell =-STRESS in cart. coord.  units (eV):
  Direction    XX          YY          ZZ          XY          YZ          ZX
  --------------------------------------------------------------------------------------
  Alpha Z     0.18886     0.18886     0.18886
  Ewald     -72.49438   -73.73667   -74.97623     0.00000     0.00000     0.00000
  Hartree   469.92887   468.69462   467.47507     0.00259    -0.00019     0.00267
  E(xc)     -69.80215   -69.80158   -69.80186    -0.00068     0.00014    -0.00001
  Local    -668.60820  -666.12493  -663.66788    -0.00576     0.00069    -0.00472
  n-local    70.24266    70.23804    70.23953     0.00262    -0.00036     0.00106
  augment   178.24995   178.25586   178.25435    -0.00549     0.00085    -0.00047
  Kinetic    92.27708    92.27640    92.27642    -0.00155     0.00054     0.00051
  Fock        0.00000     0.00000     0.00000     0.00000     0.00000     0.00000
  -------------------------------------------------------------------------------------
  Total      -0.01730    -0.00939    -0.01173    -0.00827     0.00166    -0.00096
  in kB      -0.00467    -0.00254    -0.00317    -0.00223     0.00045    -0.00026
  external pressure =       -0.00 kB  Pullay stress =        0.00 kB


 VOLUME and BASIS-vectors are now :
 -----------------------------------------------------------------------------
  energy-cutoff  :      520.00
  volume of cell :     5929.56
      direct lattice vectors                 reciprocal lattice vectors
    18.000000000  0.000000000  0.000000000     0.055555556 -0.000000000  0.000000000
     0.000000000 18.100000000  0.000000000     0.000000000  0.055248619  0.000000000
     0.000000000  0.000000000 18.200000000    -0.000000000 -0.000000000  0.054945055

  length of vectors
    18.000000000 18.100000000 18.200000000     0.055555556  0.055248619  0.054945055


 FORCES acting on ions
    electron-ion (+dipol)            ewald-force                    non-local-force                 convergence-correction
 -----------------------------------------------------------------------------------------------
   -.107E-04 -.291E-05 -.274E-06   0.416E-16 0.138E-16 -.388E-16   -.620E-05 0.278E-05 -.955E-06   0.179E-04 0.275E-06 0.104E-05
 -----------------------------------------------------------------------------------------------
   -.107E-04 -.291E-05 -.274E-06   0.416E-16 0.138E-16 -.388E-16   -.620E-05 0.278E-05 -.955E-06   0.179E-04 0.275E-06 0.104E-05
 
 
 POSITION                                       TOTAL-FORCE (eV/Angst)
 -----------------------------------------------------------------------------------
      0.00000      0.00000      0.00000         0.000001      0.000000     -0.000000
 -----------------------------------------------------------------------------------
    total drift:                                0.000001      0.000000     -0.000000


--------------------------------------------------------------------------------------------------------



  FREE ENERGIE OF THE ION-ELECTRON SYSTEM (eV)
  ---------------------------------------------------
  free  energy   TOTEN  =        -0.69877151 eV

  energy  without entropy=       -0.66020593  energy(sigma->0) =       -0.67948872
 


--------------------------------------------------------------------------------------------------------


    POTLOK:  cpu time      1.0453: real time      1.0518


--------------------------------------------------------------------------------------------------------


     LOOP+:  cpu time     35.3271: real time     35.5774
    4ORBIT:  cpu time      0.0000: real time      0.0000

 total amount of memory used by VASP MPI-rank0    82068. kBytes
=======================================================================

   base      :      30000. kBytes
   nonl-proj :        396. kBytes
   fftplans  :      14937. kBytes
   grid      :      36243. kBytes
   one-center:         15. kBytes
   wavefun   :        477. kBytes
 
  
  
 General timing and accounting informations for this job:
 ========================================================
  
                  Total CPU time used (sec):       37.796
                            User time (sec):       33.743
                          System time (sec):        4.053
                         Elapsed time (sec):       38.611
  
                   Maximum memory used (kb):      493836.
                   Average memory used (kb):          N/A
  
                          Minor page faults:       143888
                          Major page faults:           54
                 Voluntary context switches:         1392
