 vasp.6.4.2 20Jul23 (build Aug 07 2024 12:45:50) gamma-only                     
  
 executed on             LinuxIFC date 2026.09.30  12:34:13
 running   64 mpi-ranks, on    1 nodes
 distrk:  each k-point on   64 cores,    1 groups
 distr:  one band on NCORE=  32 cores,    2 groups


--------------------------------------------------------------------------------------------------------


 INCAR:
   ALGO = Normal
   EDIFF = 1e-05
   EFERMI = Midgap
   ENCUT = 520.0
   GGA = Pe
   GGA_COMPAT = False
   IBRION = -1
   ISMEAR = 0
   ISPIN = 2
   ISYM = 0
   LAECHG = False
   LASPH = True
   LCHARG = False
   LMAXMIX = 6
   LMIXTAU = True
   LREAL = False
   LWAVE = False
   MAGMOM = 1*1.0
   NCORE = 32
   NELM = 400
   NSW = 0
   PREC = Accurate
   SIGMA = 0.05
   SYSTEM = Rb_atom_ispin2

 POTCAR:    PAW_PBE Rb_sv 06Sep2000               
 -----------------------------------------------------------------------------
|                                                                             |
|           W    W    AA    RRRRR   N    N  II  N    N   GGGG   !!!           |
|           W    W   A  A   R    R  NN   N  II  NN   N  G    G  !!!           |
|           W    W  A    A  R    R  N N  N  II  N N  N  G       !!!           |
|           W WW W  AAAAAA  RRRRR   N  N N  II  N  N N  G  GGG   !            |
|           WW  WW  A    A  R   R   N   NN  II  N   NN  G    G                |
|           W    W  A    A  R    R  N    N  II  N    N   GGGG   !!!           |
|                                                                             |
|     For optimal performance we recommend to set                             |
|       NCORE = 2 up to number-of-cores-per-socket                            |
|     NCORE specifies how many cores store one orbital (NPAR=cpu/NCORE).      |
|     This setting can greatly improve the performance of VASP for DFT.       |
|     The default, NCORE=1 might be grossly inefficient on modern             |
|     multi-core architectures or massively parallel machines. Do your        |
|     own testing! More info at https://www.vasp.at/wiki/index.php/NCORE      |
|     Unfortunately you need to use the default for GW and RPA                |
|     calculations (for HF NCORE is supported but not extensively tested      |
|     yet).                                                                   |
|                                                                             |
 -----------------------------------------------------------------------------

 POTCAR:    PAW_PBE Rb_sv 06Sep2000               
   SHA256 =  06c38fe1ec7709d96d3959f5f2c66fec330a93b52b042a8fb2dfe6a3a3fb06c1 Rb_sv/POTCAR          
   COPYR  = (c) Copyright 06Sep2000 Georg Kresse                                                    
   COPYR  = This file is part of the software VASP. Any use, copying, and all other rights are regul
   COPYR  = If you do not have a valid VASP license, you may not use, copy or distribute this file. 
   VRHFIN =Rb: 4s4p5s                                                                               
   LEXCH  = PE                                                                                      
   EATOM  =   662.5034 eV,   48.6926 Ry                                                             
                                                                                                    
   TITEL  = PAW_PBE Rb_sv 06Sep2000                                                                 
   LULTRA =        F    use ultrasoft PP ?                                                          
   IUNSCR =        1    unscreen: 0-lin 1-nonlin 2-no                                               
   RPACOR =    2.200    partial core radius                                                         
   POMASS =   85.468; ZVAL   =    9.000    mass and valenz                                          
   RCORE  =    2.500    outmost cutoff radius                                                       
   RWIGS  =    4.570; RWIGS  =    2.418    wigner-seitz radius (au A)                               
   ENMAX  =  220.112; ENMIN  =  165.084 eV                                                          
   RCLOC  =    2.200    cutoff for local pot                                                        
   LCOR   =        T    correct aug charges                                                         
   LPAW   =        T    paw PP                                                                      
   EAUG   =  423.861                                                                                
   DEXC   =    0.000                                                                                
   RMAX   =    2.546    core radius for proj-oper                                                   
   RAUG   =    1.300    factor for augmentation sphere                                              
   RDEP   =    2.541    radius for radial grids                                                     
   RDEPT  =    2.044    core radius for aug-charge                                                  
                                                                                                    
   Atomic configuration                                                                             
   10 entries                                                                                       
     n  l   j            E        occ.                                                              
     1  0  0.50    -15031.5419   2.0000                                                             
     2  0  0.50     -2007.8842   2.0000                                                             
     2  1  1.50     -1779.8144   6.0000                                                             
     3  0  0.50      -297.9619   2.0000                                                             
     3  1  1.50      -224.8335   6.0000                                                             
     3  2  2.50      -103.9539  10.0000                                                             
     4  0  0.50       -31.8932   2.0000                                                             
     5  0  0.50        -2.2327   0.9990                                                             
     4  1  1.50       -15.9645   6.0000                                                             
     4  2  1.50        -0.0020   0.0010                                                             
   Description                                                                                      
     l       E           TYP  RCUT    TYP  RCUT                                                     
     0    -31.8932387     23  2.500                                                                 
     0     -2.2326525     23  2.500                                                                 
     1    -15.9644597     23  2.500                                                                 
     1    -17.3250423     23  2.500                                                                 
     2     -0.0020100     23  2.500                                                                 
  local pseudopotential read in
  partial core-charges read in
  partial kinetic energy density read in
  atomic valenz-charges read in
  non local Contribution for L=           0  read in
    real space projection operators read in
  non local Contribution for L=           0  read in
    real space projection operators read in
  non local Contribution for L=           1  read in
    real space projection operators read in
  non local Contribution for L=           1  read in
    real space projection operators read in
  non local Contribution for L=           2  read in
    real space projection operators read in
    PAW grid and wavefunctions read in
 
   number of l-projection  operators is LMAX  =           5
   number of lm-projection operators is LMMAX =          13
 
  PAW_PBE Rb_sv 06Sep2000               :
 energy of atom  1       EATOM= -662.5034
 kinetic energy error for atom=    0.0006 (will be added to EATOM!!)
 
 
 POSCAR: Rb1
  positions in direct lattice
  No initial velocities read in
 exchange correlation table for  LEXCH =        8
   RHO(1)=    0.500       N(1)  =     2000
   RHO(2)=  100.500       N(2)  =     4000
 


--------------------------------------------------------------------------------------------------------


 ion  position               nearest neighbor table
   1  0.000  0.000  0.000-
 

IMPORTANT INFORMATION: All symmetrisations will be switched off!
NOSYMM: (Re-)initialisation of all symmetry stuff for point group C_1.


----------------------------------------------------------------------------------------

                                     Primitive cell                                     

  volume of cell :    5929.5600

  direct lattice vectors                    reciprocal lattice vectors
    18.000000000  0.000000000  0.000000000     0.055555556 -0.000000000  0.000000000
     0.000000000 18.100000000  0.000000000     0.000000000  0.055248619  0.000000000
     0.000000000  0.000000000 18.200000000    -0.000000000 -0.000000000  0.054945055

  length of vectors
    18.000000000 18.100000000 18.200000000     0.055555556  0.055248619  0.054945055

  position of ions in fractional coordinates (direct lattice)
     0.000000000  0.000000000  0.000000000

  ion indices of the primitive-cell ions
   primitive index   ion index
                 1           1

----------------------------------------------------------------------------------------

 
 
 KPOINTS: Automatic kpoint scheme                 

Automatic generation of k-mesh.
 Grid dimensions read from file:
 generate k-points for:    1    1    1

 Generating k-lattice:

  Cartesian coordinates                     Fractional coordinates (reciprocal lattice)
     0.055555556 -0.000000000  0.000000000     1.000000000 -0.000000000  0.000000000
     0.000000000  0.055248619  0.000000000     0.000000000  1.000000000  0.000000000
    -0.000000000 -0.000000000  0.054945055    -0.000000000 -0.000000000  1.000000000

  Length of vectors
     0.055555556  0.055248619  0.054945055

  Shift w.r.t. Gamma in fractional coordinates (k-lattice)
     0.000000000  0.000000000  0.000000000

 
 Subroutine IBZKPT returns following result:
 ===========================================
 
 Found      1 irreducible k-points:
 
 Following reciprocal coordinates:
            Coordinates               Weight
  0.000000  0.000000  0.000000      1.000000
 
 Following cartesian coordinates:
            Coordinates               Weight
  0.000000  0.000000  0.000000      1.000000
 


--------------------------------------------------------------------------------------------------------




 Dimension of arrays:
   k-points           NKPTS =      1   k-points in BZ     NKDIM =      1   number of bands    NBANDS=     10
   number of dos      NEDOS =    301   number of ions     NIONS =      1
   non local maximal  LDIM  =      5   non local SUM 2l+1 LMDIM =     13
   total plane-waves  NPLWV = ******
   max r-space proj   IRMAX =      1   max aug-charges    IRDMAX=  22042
   dimension x,y,z NGX =   140 NGY =  140 NGZ =  140
   dimension x,y,z NGXF=   280 NGYF=  280 NGZF=  280
   support grid    NGXF=   280 NGYF=  280 NGZF=  280
   ions per type =               1
   NGX,Y,Z   is equivalent  to a cutoff of  12.93, 12.86, 12.79 a.u.
   NGXF,Y,Z  is equivalent  to a cutoff of  25.86, 25.72, 25.58 a.u.

 SYSTEM =  Rb_atom_ispin2                          
 POSCAR =  Rb1                                     

 Startparameter for this run:
   NWRITE =      2    write-flag & timer
   PREC   = accura    normal or accurate (medium, high low for compatibility)
   ISTART =      0    job   : 0-new  1-cont  2-samecut
   ICHARG =      2    charge: 1-file 2-atom 10-const
   ISPIN  =      2    spin polarized calculation?
   LNONCOLLINEAR =      F non collinear calculations
   LSORBIT =      F    spin-orbit coupling
   INIWAV =      1    electr: 0-lowe 1-rand  2-diag
   LASPH  =      T    aspherical Exc in radial PAW
 Electronic Relaxation 1
   ENCUT  =  520.0 eV  38.22 Ry    6.18 a.u.  33.47 33.65 33.84*2*pi/ulx,y,z
   ENINI  =  520.0     initial cutoff
   ENAUG  =  423.9 eV  augmentation charge cutoff
   NELM   =    400;   NELMIN=  2; NELMDL= -5     # of ELM steps 
   EDIFF  = 0.1E-04   stopping-criterion for ELM
   LREAL  =      F    real-space projection
   NLSPLINE    = F    spline interpolate recip. space projectors
   LCOMPAT=      F    compatible to vasp.4.4
   GGA_COMPAT  = F    GGA compatible to vasp.4.4-vasp.4.6
   LMAXPAW     = -100 max onsite density
   LMAXMIX     =    6 max onsite mixed and CHGCAR
   VOSKOWN=      0    Vosko Wilk Nusair interpolation
   ROPT   =    0.00000
 Ionic relaxation
   EDIFFG = 0.1E-03   stopping-criterion for IOM
   NSW    =      0    number of steps for IOM
   NBLOCK =      1;   KBLOCK =      1    inner block; outer block 
   IBRION =     -1    ionic relax: 0-MD 1-quasi-New 2-CG
   NFREE  =      0    steps in history (QN), initial steepest desc. (CG)
   ISIF   =      2    stress and relaxation
   IWAVPR =     10    prediction:  0-non 1-charg 2-wave 3-comb
   ISYM   =      0    0-nonsym 1-usesym 2-fastsym
   LCORR  =      T    Harris-Foulkes like correction to forces

   POTIM  = 0.5000    time-step for ionic-motion
   TEIN   =    0.0    initial temperature
   TEBEG  =    0.0;   TEEND  =   0.0 temperature during run
   SMASS  =  -3.00    Nose mass-parameter (am)
   estimated Nose-frequenzy (Omega)   =  0.10E-29 period in steps = 0.13E+47 mass=  -0.740E-26a.u.
   SCALEE = 1.0000    scale energy and forces
   NPACO  =    256;   APACO  = 10.0  distance and # of slots for P.C.
   PSTRESS=    0.0 pullay stress

  Mass of Ions in am
   POMASS =  85.47
  Ionic Valenz
   ZVAL   =   9.00
  Atomic Wigner-Seitz radii
   RWIGS  =  -1.00
  virtual crystal weights 
   VCA    =   1.00
   NELECT =       9.0000    total number of electrons
   NUPDOWN=      -1.0000    fix difference up-down

 DOS related values:
   EMIN   =  10.00;   EMAX   =-10.00  energy-range for DOS
   EFERMI =   0.00;   METHOD = MIDGAP      
   ISMEAR =     0;   SIGMA  =   0.05  broadening in eV -4-tet -1-fermi 0-gaus

 Electronic relaxation 2 (details)
   IALGO  =     38    algorithm
   LDIAG  =      T    sub-space diagonalisation (order eigenvalues)
   LSUBROT=      F    optimize rotation matrix (better conditioning)
   TURBO    =      0    0=normal 1=particle mesh
   IRESTART =      0    0=no restart 2=restart with 2 vectors
   NREBOOT  =      0    no. of reboots
   NMIN     =      0    reboot dimension
   EREF     =   0.00    reference energy to select bands
   IMIX   =      4    mixing-type and parameters
     AMIX     =   0.40;   BMIX     =  1.00
     AMIX_MAG =   1.60;   BMIX_MAG =  1.00
     AMIN     =   0.10
     WC   =   100.;   INIMIX=   1;  MIXPRE=   1;  MAXMIX= -45

 Intra band minimization:
   WEIMIN = 0.0000     energy-eigenvalue tresh-hold
   EBREAK =  0.25E-06  absolut break condition
   DEPER  =   0.30     relativ break condition  

   TIME   =   0.40     timestep for ELM

  volume/ion in A,a.u.               =    5929.56     40014.65
  Fermi-wavevector in a.u.,A,eV,Ry     =   0.188140  0.355533  0.481602  0.035397
  Thomas-Fermi vector in A             =   0.924900
 
 Write flags
   LWAVE        =      F    write WAVECAR
   LDOWNSAMPLE  =      F    k-point downsampling of WAVECAR
   LCHARG       =      F    write CHGCAR
   LVTOT        =      F    write LOCPOT, total local potential
   LVHAR        =      F    write LOCPOT, Hartree potential only
   LELF         =      F    write electronic localiz. function (ELF)
   LORBIT       =      0    0 simple, 1 ext, 2 COOP (PROOUT), +10 PAW based schemes


 Dipole corrections
   LMONO  =      F    monopole corrections only (constant potential shift)
   LDIPOL =      F    correct potential (dipole corrections)
   IDIPOL =      0    1-x, 2-y, 3-z, 4-all directions 
   EPSILON=  1.0000000 bulk dielectric constant

 Exchange correlation treatment:
   GGA     =    PE    GGA type
   LEXCH   =     8    internal setting for exchange type
   LIBXC   =     F    Libxc                    
   VOSKOWN =     0    Vosko Wilk Nusair interpolation
   LHFCALC =     F    Hartree Fock is set to
   LHFONE  =     F    Hartree Fock one center treatment
   AEXX    =    0.0000 exact exchange contribution

 Linear response parameters
   LEPSILON=     F    determine dielectric tensor
   LRPA    =     F    only Hartree local field effects (RPA)
   LNABLA  =     F    use nabla operator in PAW spheres
   LVEL    =     F    velocity operator in full k-point grid
   CSHIFT  =0.1000    complex shift for real part using Kramers Kronig
   OMEGAMAX=  -1.0    maximum frequency
   DEG_THRESHOLD= 0.2000000E-02 threshold for treating states as degnerate
   RTIME   =   -0.100 relaxation time in fs
  (WPLASMAI=    0.000 imaginary part of plasma frequency in eV, 0.658/RTIME)
   DFIELD  = 0.0000000 0.0000000 0.0000000 field for delta impulse in time
 
  Optional k-point grid parameters
   LKPOINTS_OPT  =     F    use optional k-point grid
   KPOINTS_OPT_MODE=     1    mode for optional k-point grid
 
 Orbital magnetization related:
   ORBITALMAG=     F  switch on orbital magnetization
   LCHIMAG   =     F  perturbation theory with respect to B field
   DQ        =  0.001000  dq finite difference perturbation B field
   LLRAUG    =     F  two centre corrections for induced B field
   LBONE     =     F  B-component reconstruction in AE one-centre
   LVGVCALC  =     T  calculate vGv susceptibility
   LVGVAPPL  =     F  apply vGv susceptibility instead of pGv for G=0

 Random number generation:
   RANDOM_GENERATOR = DEFAULT
   PCG_SEED         = not used


--------------------------------------------------------------------------------------------------------


 Static calculation
 charge density and potential will be updated during run
 spin polarized calculation
 Variant of blocked Davidson
 Davidson routine will perform the subspace rotation
 perform sub-space diagonalisation
    after iterative eigenvector-optimisation
 modified Broyden-mixing scheme, WC =      100.0
 initial mixing is a Kerker type mixing with AMIX =  0.4000 and BMIX =      1.0000
 Hartree-type preconditioning will be used
 using additional bands            5
 reciprocal scheme for non local part
 use partial core corrections
 calculate Harris-corrections to forces 
   (improved forces if not selfconsistent)
 use gradient corrections 
 use of overlap-Matrix (Vanderbilt PP)
 Gauss-broadening in eV      SIGMA  =   0.05


--------------------------------------------------------------------------------------------------------


  energy-cutoff  :      520.00
  volume of cell :     5929.56
      direct lattice vectors                 reciprocal lattice vectors
    18.000000000  0.000000000  0.000000000     0.055555556 -0.000000000  0.000000000
     0.000000000 18.100000000  0.000000000     0.000000000  0.055248619  0.000000000
     0.000000000  0.000000000 18.200000000    -0.000000000 -0.000000000  0.054945055

  length of vectors
    18.000000000 18.100000000 18.200000000     0.055555556  0.055248619  0.054945055


 
 k-points in units of 2pi/SCALE and weight: Automatic kpoint scheme                 
   0.00000000  0.00000000  0.00000000       1.000
 
 k-points in reciprocal lattice and weights: Automatic kpoint scheme                 
   0.00000000  0.00000000  0.00000000       1.000
 
 position of ions in fractional coordinates (direct lattice) 
   0.00000000  0.00000000  0.00000000
 
 position of ions in cartesian coordinates  (Angst):
   0.00000000  0.00000000  0.00000000
 


--------------------------------------------------------------------------------------------------------


 use parallel FFT for orbitals z direction half grid
 k-point   1 :   0.0000 0.0000 0.0000  plane waves:   79868

 maximum and minimum number of plane-waves per node :      2508     2479

 maximum number of plane-waves:     79868
 maximum index in each direction: 
   IXMAX=   33   IYMAX=   33   IZMAX=   33
   IXMIN=  -33   IYMIN=  -33   IZMIN=    0


 parallel 3D FFT for wavefunctions:
    minimum data exchange during FFTs selected (reduces bandwidth)
 parallel 3D FFT for charge:
    minimum data exchange during FFTs selected (reduces bandwidth)


 total amount of memory used by VASP MPI-rank0    81882. kBytes
=======================================================================

   base      :      30000. kBytes
   nonl-proj :        297. kBytes
   fftplans  :      14937. kBytes
   grid      :      36243. kBytes
   one-center:          8. kBytes
   wavefun   :        397. kBytes
 
     INWAV:  cpu time      0.0000: real time      0.0000
 Broyden mixing: mesh for mixing (old mesh)
   NGX = 67   NGY = 67   NGZ = 67
  (NGX  =280   NGY  =280   NGZ  =280)
  gives a total of 300763 points

 initial charge density was supplied:
 charge density of overlapping atoms calculated
 number of electron       9.0000000 magnetization       1.0000000
 keeping initial charge density in first step


--------------------------------------------------------------------------------------------------------


 Maximum index for augmentation-charges          925 (set IRDMAX)


--------------------------------------------------------------------------------------------------------


 First call to EWALD:  gamma=   0.098
 Maximum number of real-space cells 3x 3x 3
 Maximum number of reciprocal cells 3x 3x 3

    FEWALD:  cpu time      0.0019: real time      0.0020


--------------------------------------- Ionic step        1  -------------------------------------------




--------------------------------------- Iteration      1(   1)  ---------------------------------------


    POTLOK:  cpu time      0.5759: real time      0.5803
    SETDIJ:  cpu time      0.4729: real time      0.4752
     EDDAV:  cpu time      0.1315: real time      0.1331
       DOS:  cpu time      0.0002: real time      0.0002
    --------------------------------------------
      LOOP:  cpu time      1.1805: real time      1.1888

 eigenvalue-minimisations  :    40
 total energy-change (2. order) : 0.1038766E+03  (-0.1239826E+03)
 number of electron       9.0000000 magnetization       1.0000000
 augmentation part        9.0000000 magnetization       1.0000000

 Free energy of the ion-electron system (eV)
  ---------------------------------------------------
  alpha Z        PSCENC =         0.26356293
  Ewald energy   TEWEN  =       -91.41729252
  -Hartree energ DENC   =      -442.61463989
  -exchange      EXHF   =         0.00000000
  -V(xc)+E(xc)   XCENC  =        28.12777090
  PAW double counting   =       505.05203209     -500.52691309
  entropy T*S    EENTRO =        -0.00308843
  eigenvalues    EBANDS =       -57.50765169
  atomic energy  EATOM  =       662.50282877
  Solvation  Ediel_sol  =         0.00000000
  ---------------------------------------------------
  free energy    TOTEN  =       103.87660905 eV

  energy without entropy =      103.87969749  energy(sigma->0) =      103.87815327


--------------------------------------------------------------------------------------------------------




--------------------------------------- Iteration      1(   2)  ---------------------------------------


     EDDAV:  cpu time      0.1854: real time      0.1882
       DOS:  cpu time      0.0002: real time      0.0002
    --------------------------------------------
      LOOP:  cpu time      0.1855: real time      0.1883

 eigenvalue-minimisations  :    76
 total energy-change (2. order) :-0.5884116E+02  (-0.5864666E+02)
 number of electron       9.0000000 magnetization       1.0000000
 augmentation part        9.0000000 magnetization       1.0000000

 Free energy of the ion-electron system (eV)
  ---------------------------------------------------
  alpha Z        PSCENC =         0.26356293
  Ewald energy   TEWEN  =       -91.41729252
  -Hartree energ DENC   =      -442.61463989
  -exchange      EXHF   =         0.00000000
  -V(xc)+E(xc)   XCENC  =        28.12777090
  PAW double counting   =       505.05203209     -500.52691309
  entropy T*S    EENTRO =        -0.02804965
  eigenvalues    EBANDS =      -116.32384576
  atomic energy  EATOM  =       662.50282877
  Solvation  Ediel_sol  =         0.00000000
  ---------------------------------------------------
  free energy    TOTEN  =        45.03545377 eV

  energy without entropy =       45.06350342  energy(sigma->0) =       45.04947859


--------------------------------------------------------------------------------------------------------




--------------------------------------- Iteration      1(   3)  ---------------------------------------


     EDDAV:  cpu time      0.1399: real time      0.1414
       DOS:  cpu time      0.0002: real time      0.0002
    --------------------------------------------
      LOOP:  cpu time      0.1401: real time      0.1416

 eigenvalue-minimisations  :    54
 total energy-change (2. order) :-0.4267538E+02  (-0.4262203E+02)
 number of electron       9.0000000 magnetization       1.0000000
 augmentation part        9.0000000 magnetization       1.0000000

 Free energy of the ion-electron system (eV)
  ---------------------------------------------------
  alpha Z        PSCENC =         0.26356293
  Ewald energy   TEWEN  =       -91.41729252
  -Hartree energ DENC   =      -442.61463989
  -exchange      EXHF   =         0.00000000
  -V(xc)+E(xc)   XCENC  =        28.12777090
  PAW double counting   =       505.05203209     -500.52691309
  entropy T*S    EENTRO =        -0.00776242
  eigenvalues    EBANDS =      -159.01951600
  atomic energy  EATOM  =       662.50282877
  Solvation  Ediel_sol  =         0.00000000
  ---------------------------------------------------
  free energy    TOTEN  =         2.36007076 eV

  energy without entropy =        2.36783317  energy(sigma->0) =        2.36395197


--------------------------------------------------------------------------------------------------------




--------------------------------------- Iteration      1(   4)  ---------------------------------------


     EDDAV:  cpu time      0.1544: real time      0.1561
       DOS:  cpu time      0.0002: real time      0.0002
    --------------------------------------------
      LOOP:  cpu time      0.1546: real time      0.1563

 eigenvalue-minimisations  :    48
 total energy-change (2. order) :-0.2242033E+01  (-0.2241479E+01)
 number of electron       9.0000000 magnetization       1.0000000
 augmentation part        9.0000000 magnetization       1.0000000

 Free energy of the ion-electron system (eV)
  ---------------------------------------------------
  alpha Z        PSCENC =         0.26356293
  Ewald energy   TEWEN  =       -91.41729252
  -Hartree energ DENC   =      -442.61463989
  -exchange      EXHF   =         0.00000000
  -V(xc)+E(xc)   XCENC  =        28.12777090
  PAW double counting   =       505.05203209     -500.52691309
  entropy T*S    EENTRO =        -0.00477501
  eigenvalues    EBANDS =      -161.26453620
  atomic energy  EATOM  =       662.50282877
  Solvation  Ediel_sol  =         0.00000000
  ---------------------------------------------------
  free energy    TOTEN  =         0.11803796 eV

  energy without entropy =        0.12281297  energy(sigma->0) =        0.12042547


--------------------------------------------------------------------------------------------------------




--------------------------------------- Iteration      1(   5)  ---------------------------------------


     EDDAV:  cpu time      0.1581: real time      0.1596
       DOS:  cpu time      0.0002: real time      0.0002
    CHARGE:  cpu time      0.0464: real time      0.0469
    MIXING:  cpu time      0.0106: real time      0.0107
    --------------------------------------------
      LOOP:  cpu time      0.2153: real time      0.2174

 eigenvalue-minimisations  :    62
 total energy-change (2. order) :-0.3482230E-01  (-0.3482066E-01)
 number of electron       9.0000000 magnetization       0.9894259
 augmentation part       -0.2222707 magnetization      -0.0617907

 Broyden mixing:
  rms(total) = 0.31330E+00    rms(broyden)= 0.31330E+00
  rms(prec ) = 0.31332E+00
  weight for this iteration     100.00

 Free energy of the ion-electron system (eV)
  ---------------------------------------------------
  alpha Z        PSCENC =         0.26356293
  Ewald energy   TEWEN  =       -91.41729252
  -Hartree energ DENC   =      -442.61463989
  -exchange      EXHF   =         0.00000000
  -V(xc)+E(xc)   XCENC  =        28.12777090
  PAW double counting   =       505.05203209     -500.52691309
  entropy T*S    EENTRO =        -0.00494769
  eigenvalues    EBANDS =      -161.29918582
  atomic energy  EATOM  =       662.50282877
  Solvation  Ediel_sol  =         0.00000000
  ---------------------------------------------------
  free energy    TOTEN  =         0.08321566 eV

  energy without entropy =        0.08816336  energy(sigma->0) =        0.08568951


--------------------------------------------------------------------------------------------------------




--------------------------------------- Iteration      1(   6)  ---------------------------------------


    POTLOK:  cpu time      0.6117: real time      0.6164
    SETDIJ:  cpu time      0.4714: real time      0.4737
     EDDAV:  cpu time      0.1405: real time      0.1419
       DOS:  cpu time      0.0002: real time      0.0002
    CHARGE:  cpu time      0.0418: real time      0.0423
    MIXING:  cpu time      0.0107: real time      0.0108
    --------------------------------------------
      LOOP:  cpu time      1.2763: real time      1.2853

 eigenvalue-minimisations  :    50
 total energy-change (2. order) : 0.1129901E+01  (-0.5106783E+00)
 number of electron       9.0000000 magnetization       0.9909529
 augmentation part       -0.2379686 magnetization      -0.1654484

 Broyden mixing:
  rms(total) = 0.10134E+00    rms(broyden)= 0.10134E+00
  rms(prec ) = 0.10347E+00
  weight for this iteration     100.00

 eigenvalues of (default mixing * dielectric matrix)
  average eigenvalue GAMMA=   0.8428
  0.8428

 Free energy of the ion-electron system (eV)
  ---------------------------------------------------
  alpha Z        PSCENC =         0.26356293
  Ewald energy   TEWEN  =       -91.41729252
  -Hartree energ DENC   =      -442.53085711
  -exchange      EXHF   =         0.00000000
  -V(xc)+E(xc)   XCENC  =        29.02594938
  PAW double counting   =       503.57494747     -499.08299297
  entropy T*S    EENTRO =        -0.00000000
  eigenvalues    EBANDS =      -161.12302913
  atomic energy  EATOM  =       662.50282877
  Solvation  Ediel_sol  =         0.00000000
  ---------------------------------------------------
  free energy    TOTEN  =         1.21311681 eV

  energy without entropy =        1.21311681  energy(sigma->0) =        1.21311681


--------------------------------------------------------------------------------------------------------




--------------------------------------- Iteration      1(   7)  ---------------------------------------


    POTLOK:  cpu time      0.5774: real time      0.5826
    SETDIJ:  cpu time      0.4706: real time      0.4728
     EDDAV:  cpu time      0.1522: real time      0.1539
       DOS:  cpu time      0.0002: real time      0.0002
    CHARGE:  cpu time      0.0426: real time      0.0432
    MIXING:  cpu time      0.0107: real time      0.0108
    --------------------------------------------
      LOOP:  cpu time      1.2537: real time      1.2634

 eigenvalue-minimisations  :    58
 total energy-change (2. order) :-0.5404130E+00  (-0.5124140E-01)
 number of electron       9.0000000 magnetization       0.9918597
 augmentation part       -0.2414058 magnetization      -0.1615424

 Broyden mixing:
  rms(total) = 0.65800E-01    rms(broyden)= 0.65799E-01
  rms(prec ) = 0.66166E-01
  weight for this iteration     100.00

 eigenvalues of (default mixing * dielectric matrix)
  average eigenvalue GAMMA=   0.6928
  0.8564  0.5293

 Free energy of the ion-electron system (eV)
  ---------------------------------------------------
  alpha Z        PSCENC =         0.26356293
  Ewald energy   TEWEN  =       -91.41729252
  -Hartree energ DENC   =      -443.56789587
  -exchange      EXHF   =         0.00000000
  -V(xc)+E(xc)   XCENC  =        28.81391975
  PAW double counting   =       508.59423057     -504.04969120
  entropy T*S    EENTRO =        -0.00000000
  eigenvalues    EBANDS =      -160.46695863
  atomic energy  EATOM  =       662.50282877
  Solvation  Ediel_sol  =         0.00000000
  ---------------------------------------------------
  free energy    TOTEN  =         0.67270380 eV

  energy without entropy =        0.67270380  energy(sigma->0) =        0.67270380


--------------------------------------------------------------------------------------------------------




--------------------------------------- Iteration      1(   8)  ---------------------------------------


    POTLOK:  cpu time      0.5754: real time      0.5800
    SETDIJ:  cpu time      0.4705: real time      0.4729
     EDDAV:  cpu time      0.1621: real time      0.1635
       DOS:  cpu time      0.0002: real time      0.0002
    CHARGE:  cpu time      0.0437: real time      0.0442
    MIXING:  cpu time      0.0106: real time      0.0107
    --------------------------------------------
      LOOP:  cpu time      1.2626: real time      1.2714

 eigenvalue-minimisations  :    58
 total energy-change (2. order) :-0.2594348E+00  (-0.5484608E-02)
 number of electron       9.0000000 magnetization       0.9931989
 augmentation part       -0.2410253 magnetization      -0.1603224

 Broyden mixing:
  rms(total) = 0.15293E-01    rms(broyden)= 0.15293E-01
  rms(prec ) = 0.15911E-01
  weight for this iteration     100.00

 eigenvalues of (default mixing * dielectric matrix)
  average eigenvalue GAMMA=   0.8418
  0.9517  0.9517  0.6219

 Free energy of the ion-electron system (eV)
  ---------------------------------------------------
  alpha Z        PSCENC =         0.26356293
  Ewald energy   TEWEN  =       -91.41729252
  -Hartree energ DENC   =      -443.75824536
  -exchange      EXHF   =         0.00000000
  -V(xc)+E(xc)   XCENC  =        28.62821437
  PAW double counting   =       509.18505881     -504.63071577
  entropy T*S    EENTRO =        -0.00000000
  eigenvalues    EBANDS =      -160.36014224
  atomic energy  EATOM  =       662.50282877
  Solvation  Ediel_sol  =         0.00000000
  ---------------------------------------------------
  free energy    TOTEN  =         0.41326897 eV

  energy without entropy =        0.41326897  energy(sigma->0) =        0.41326897


--------------------------------------------------------------------------------------------------------




--------------------------------------- Iteration      1(   9)  ---------------------------------------


    POTLOK:  cpu time      0.6058: real time      0.6112
    SETDIJ:  cpu time      0.4708: real time      0.4730
     EDDAV:  cpu time      0.1205: real time      0.1220
       DOS:  cpu time      0.0002: real time      0.0002
    CHARGE:  cpu time      0.0438: real time      0.0443
    MIXING:  cpu time      0.0108: real time      0.0108
    --------------------------------------------
      LOOP:  cpu time      1.2519: real time      1.2615

 eigenvalue-minimisations  :    42
 total energy-change (2. order) :-0.2533879E+00  (-0.6083822E-02)
 number of electron       9.0000000 magnetization       0.9950749
 augmentation part       -0.2402856 magnetization      -0.1564178

 Broyden mixing:
  rms(total) = 0.11389E-01    rms(broyden)= 0.11388E-01
  rms(prec ) = 0.11796E-01
  weight for this iteration     100.00

 eigenvalues of (default mixing * dielectric matrix)
  average eigenvalue GAMMA=   0.9420
  1.1489  1.1489  0.5871  0.8830

 Free energy of the ion-electron system (eV)
  ---------------------------------------------------
  alpha Z        PSCENC =         0.26356293
  Ewald energy   TEWEN  =       -91.41729252
  -Hartree energ DENC   =      -443.82145218
  -exchange      EXHF   =         0.00000000
  -V(xc)+E(xc)   XCENC  =        28.43220897
  PAW double counting   =       508.99026979     -504.43386915
  entropy T*S    EENTRO =        -0.00000000
  eigenvalues    EBANDS =      -160.35637557
  atomic energy  EATOM  =       662.50282877
  Solvation  Ediel_sol  =         0.00000000
  ---------------------------------------------------
  free energy    TOTEN  =         0.15988103 eV

  energy without entropy =        0.15988103  energy(sigma->0) =        0.15988103


--------------------------------------------------------------------------------------------------------




--------------------------------------- Iteration      1(  10)  ---------------------------------------


    POTLOK:  cpu time      0.5862: real time      0.5906
    SETDIJ:  cpu time      0.4705: real time      0.4727
     EDDAV:  cpu time      0.1186: real time      0.1199
       DOS:  cpu time      0.0002: real time      0.0002
    CHARGE:  cpu time      0.0432: real time      0.0439
    MIXING:  cpu time      0.0109: real time      0.0110
    --------------------------------------------
      LOOP:  cpu time      1.2296: real time      1.2382

 eigenvalue-minimisations  :    40
 total energy-change (2. order) :-0.1569785E+00  (-0.4708984E-02)
 number of electron       9.0000000 magnetization       0.9965089
 augmentation part       -0.2399554 magnetization      -0.1533275

 Broyden mixing:
  rms(total) = 0.78059E-02    rms(broyden)= 0.78059E-02
  rms(prec ) = 0.80866E-02
  weight for this iteration     100.00

 eigenvalues of (default mixing * dielectric matrix)
  average eigenvalue GAMMA=   1.1720
  2.4293  1.2840  0.9623  0.5921  0.5921

 Free energy of the ion-electron system (eV)
  ---------------------------------------------------
  alpha Z        PSCENC =         0.26356293
  Ewald energy   TEWEN  =       -91.41729252
  -Hartree energ DENC   =      -443.65720282
  -exchange      EXHF   =         0.00000000
  -V(xc)+E(xc)   XCENC  =        28.30149228
  PAW double counting   =       507.65579137     -503.11096378
  entropy T*S    EENTRO =        -0.00000000
  eigenvalues    EBANDS =      -160.53531367
  atomic energy  EATOM  =       662.50282877
  Solvation  Ediel_sol  =         0.00000000
  ---------------------------------------------------
  free energy    TOTEN  =         0.00290256 eV

  energy without entropy =        0.00290256  energy(sigma->0) =        0.00290256


--------------------------------------------------------------------------------------------------------




--------------------------------------- Iteration      1(  11)  ---------------------------------------


    POTLOK:  cpu time      0.6725: real time      0.6773
    SETDIJ:  cpu time      0.4725: real time      0.4748
     EDDAV:  cpu time      0.1431: real time      0.1445
       DOS:  cpu time      0.0002: real time      0.0002
    CHARGE:  cpu time      0.0434: real time      0.0438
    MIXING:  cpu time      0.0114: real time      0.0115
    --------------------------------------------
      LOOP:  cpu time      1.3430: real time      1.3520

 eigenvalue-minimisations  :    54
 total energy-change (2. order) :-0.8779431E-01  (-0.2469987E-02)
 number of electron       9.0000000 magnetization       0.9975417
 augmentation part       -0.2409842 magnetization      -0.1522782

 Broyden mixing:
  rms(total) = 0.36244E-02    rms(broyden)= 0.36242E-02
  rms(prec ) = 0.39805E-02
  weight for this iteration     100.00

 eigenvalues of (default mixing * dielectric matrix)
  average eigenvalue GAMMA=   1.2036
  2.5800  1.5425  0.8960  0.8960  0.6206  0.6863

 Free energy of the ion-electron system (eV)
  ---------------------------------------------------
  alpha Z        PSCENC =         0.26356293
  Ewald energy   TEWEN  =       -91.41729252
  -Hartree energ DENC   =      -443.48412761
  -exchange      EXHF   =         0.00000000
  -V(xc)+E(xc)   XCENC  =        28.22219202
  PAW double counting   =       506.57379635     -502.03893478
  entropy T*S    EENTRO =        -0.00000000
  eigenvalues    EBANDS =      -160.70691691
  atomic energy  EATOM  =       662.50282877
  Solvation  Ediel_sol  =         0.00000000
  ---------------------------------------------------
  free energy    TOTEN  =        -0.08489175 eV

  energy without entropy =       -0.08489175  energy(sigma->0) =       -0.08489175


--------------------------------------------------------------------------------------------------------




--------------------------------------- Iteration      1(  12)  ---------------------------------------


    POTLOK:  cpu time      0.5928: real time      0.5969
    SETDIJ:  cpu time      0.4719: real time      0.4743
     EDDAV:  cpu time      0.1493: real time      0.1508
       DOS:  cpu time      0.0002: real time      0.0002
    CHARGE:  cpu time      0.0433: real time      0.0438
    MIXING:  cpu time      0.0113: real time      0.0114
    --------------------------------------------
      LOOP:  cpu time      1.2688: real time      1.2774

 eigenvalue-minimisations  :    56
 total energy-change (2. order) :-0.4223029E-01  (-0.1079469E-02)
 number of electron       9.0000000 magnetization       0.9979614
 augmentation part       -0.2421505 magnetization      -0.1521153

 Broyden mixing:
  rms(total) = 0.17716E-02    rms(broyden)= 0.17716E-02
  rms(prec ) = 0.20283E-02
  weight for this iteration     100.00

 eigenvalues of (default mixing * dielectric matrix)
  average eigenvalue GAMMA=   1.1647
  2.2909  1.9683  0.9626  0.9626  0.7246  0.6219  0.6219

 Free energy of the ion-electron system (eV)
  ---------------------------------------------------
  alpha Z        PSCENC =         0.26356293
  Ewald energy   TEWEN  =       -91.41729252
  -Hartree energ DENC   =      -443.32047386
  -exchange      EXHF   =         0.00000000
  -V(xc)+E(xc)   XCENC  =        28.18023478
  PAW double counting   =       505.93634916     -501.40528206
  entropy T*S    EENTRO =        -0.00000000
  eigenvalues    EBANDS =      -160.86704923
  atomic energy  EATOM  =       662.50282877
  Solvation  Ediel_sol  =         0.00000000
  ---------------------------------------------------
  free energy    TOTEN  =        -0.12712204 eV

  energy without entropy =       -0.12712204  energy(sigma->0) =       -0.12712204


--------------------------------------------------------------------------------------------------------




--------------------------------------- Iteration      1(  13)  ---------------------------------------


    POTLOK:  cpu time      0.5978: real time      0.6023
    SETDIJ:  cpu time      0.4720: real time      0.4742
     EDDAV:  cpu time      0.1569: real time      0.1584
       DOS:  cpu time      0.0002: real time      0.0002
    CHARGE:  cpu time      0.0427: real time      0.0432
    MIXING:  cpu time      0.0115: real time      0.0116
    --------------------------------------------
      LOOP:  cpu time      1.2811: real time      1.2899

 eigenvalue-minimisations  :    62
 total energy-change (2. order) :-0.7804851E-02  (-0.9446352E-04)
 number of electron       9.0000000 magnetization       0.9988453
 augmentation part       -0.2424939 magnetization      -0.1514497

 Broyden mixing:
  rms(total) = 0.12853E-02    rms(broyden)= 0.12852E-02
  rms(prec ) = 0.14758E-02
  weight for this iteration     100.00

 eigenvalues of (default mixing * dielectric matrix)
  average eigenvalue GAMMA=   1.2519
  2.3399  2.3399  1.4395  0.9981  0.9981  0.6305  0.6305  0.6389

 Free energy of the ion-electron system (eV)
  ---------------------------------------------------
  alpha Z        PSCENC =         0.26356293
  Ewald energy   TEWEN  =       -91.41729252
  -Hartree energ DENC   =      -443.27264145
  -exchange      EXHF   =         0.00000000
  -V(xc)+E(xc)   XCENC  =        28.17194847
  PAW double counting   =       505.89788055     -501.36476394
  entropy T*S    EENTRO =        -0.00000000
  eigenvalues    EBANDS =      -160.91644969
  atomic energy  EATOM  =       662.50282877
  Solvation  Ediel_sol  =         0.00000000
  ---------------------------------------------------
  free energy    TOTEN  =        -0.13492689 eV

  energy without entropy =       -0.13492689  energy(sigma->0) =       -0.13492689


--------------------------------------------------------------------------------------------------------




--------------------------------------- Iteration      1(  14)  ---------------------------------------


    POTLOK:  cpu time      0.6047: real time      0.6087
    SETDIJ:  cpu time      0.4730: real time      0.4754
     EDDAV:  cpu time      0.1336: real time      0.1350
       DOS:  cpu time      0.0002: real time      0.0002
    CHARGE:  cpu time      0.0431: real time      0.0437
    MIXING:  cpu time      0.0128: real time      0.0128
    --------------------------------------------
      LOOP:  cpu time      1.2674: real time      1.2758

 eigenvalue-minimisations  :    48
 total energy-change (2. order) :-0.1260805E-01  (-0.2749343E-03)
 number of electron       9.0000000 magnetization       0.9993830
 augmentation part       -0.2426233 magnetization      -0.1507379

 Broyden mixing:
  rms(total) = 0.71723E-03    rms(broyden)= 0.71721E-03
  rms(prec ) = 0.80606E-03
  weight for this iteration     100.00

 eigenvalues of (default mixing * dielectric matrix)
  average eigenvalue GAMMA=   1.3676
  3.0940  3.0940  1.5511  0.9037  0.9037  0.9389  0.5933  0.6146  0.6146

 Free energy of the ion-electron system (eV)
  ---------------------------------------------------
  alpha Z        PSCENC =         0.26356293
  Ewald energy   TEWEN  =       -91.41729252
  -Hartree energ DENC   =      -443.20585505
  -exchange      EXHF   =         0.00000000
  -V(xc)+E(xc)   XCENC  =        28.15882804
  PAW double counting   =       506.02752958     -501.48756671
  entropy T*S    EENTRO =        -0.00000000
  eigenvalues    EBANDS =      -160.98956997
  atomic energy  EATOM  =       662.50282877
  Solvation  Ediel_sol  =         0.00000000
  ---------------------------------------------------
  free energy    TOTEN  =        -0.14753493 eV

  energy without entropy =       -0.14753493  energy(sigma->0) =       -0.14753493


--------------------------------------------------------------------------------------------------------




--------------------------------------- Iteration      1(  15)  ---------------------------------------


    POTLOK:  cpu time      0.5894: real time      0.5940
    SETDIJ:  cpu time      0.4725: real time      0.4749
     EDDAV:  cpu time      0.1215: real time      0.1227
       DOS:  cpu time      0.0002: real time      0.0002
    CHARGE:  cpu time      0.0451: real time      0.0456
    MIXING:  cpu time      0.0118: real time      0.0118
    --------------------------------------------
      LOOP:  cpu time      1.2404: real time      1.2493

 eigenvalue-minimisations  :    42
 total energy-change (2. order) :-0.7845885E-02  (-0.1385635E-03)
 number of electron       9.0000000 magnetization       0.9994045
 augmentation part       -0.2427121 magnetization      -0.1507093

 Broyden mixing:
  rms(total) = 0.63497E-03    rms(broyden)= 0.63495E-03
  rms(prec ) = 0.66145E-03
  weight for this iteration     100.00

 eigenvalues of (default mixing * dielectric matrix)
  average eigenvalue GAMMA=   1.3626
  3.2671  3.2671  1.5824  0.9876  0.9876  1.0069  0.6712  0.6712  0.5925  0.5925

 Free energy of the ion-electron system (eV)
  ---------------------------------------------------
  alpha Z        PSCENC =         0.26356293
  Ewald energy   TEWEN  =       -91.41729252
  -Hartree energ DENC   =      -443.15657334
  -exchange      EXHF   =         0.00000000
  -V(xc)+E(xc)   XCENC  =        28.14992044
  PAW double counting   =       505.96481050     -501.42357814
  entropy T*S    EENTRO =        -0.00000000
  eigenvalues    EBANDS =      -161.03905945
  atomic energy  EATOM  =       662.50282877
  Solvation  Ediel_sol  =         0.00000000
  ---------------------------------------------------
  free energy    TOTEN  =        -0.15538082 eV

  energy without entropy =       -0.15538082  energy(sigma->0) =       -0.15538082


--------------------------------------------------------------------------------------------------------




--------------------------------------- Iteration      1(  16)  ---------------------------------------


    POTLOK:  cpu time      0.5892: real time      0.5935
    SETDIJ:  cpu time      0.4724: real time      0.4747
     EDDAV:  cpu time      0.1383: real time      0.1397
       DOS:  cpu time      0.0002: real time      0.0002
    CHARGE:  cpu time      0.0427: real time      0.0433
    MIXING:  cpu time      0.0121: real time      0.0121
    --------------------------------------------
      LOOP:  cpu time      1.2549: real time      1.2635

 eigenvalue-minimisations  :    52
 total energy-change (2. order) : 0.1699293E-03  (-0.1357230E-05)
 number of electron       9.0000000 magnetization       0.9997194
 augmentation part       -0.2428570 magnetization      -0.1505040

 Broyden mixing:
  rms(total) = 0.28209E-03    rms(broyden)= 0.28208E-03
  rms(prec ) = 0.33464E-03
  weight for this iteration     100.00

 eigenvalues of (default mixing * dielectric matrix)
  average eigenvalue GAMMA=   1.3650
  3.6409  3.2417  1.7375  1.0045  1.0045  0.9634  0.9634  0.6369  0.6369  0.5923
  0.5923

 Free energy of the ion-electron system (eV)
  ---------------------------------------------------
  alpha Z        PSCENC =         0.26356293
  Ewald energy   TEWEN  =       -91.41729252
  -Hartree energ DENC   =      -443.16530848
  -exchange      EXHF   =         0.00000000
  -V(xc)+E(xc)   XCENC  =        28.15065418
  PAW double counting   =       505.99810284     -501.45699980
  entropy T*S    EENTRO =        -0.00000000
  eigenvalues    EBANDS =      -161.03075881
  atomic energy  EATOM  =       662.50282877
  Solvation  Ediel_sol  =         0.00000000
  ---------------------------------------------------
  free energy    TOTEN  =        -0.15521089 eV

  energy without entropy =       -0.15521089  energy(sigma->0) =       -0.15521089


--------------------------------------------------------------------------------------------------------




--------------------------------------- Iteration      1(  17)  ---------------------------------------


    POTLOK:  cpu time      0.5839: real time      0.5889
    SETDIJ:  cpu time      0.4723: real time      0.4746
     EDDAV:  cpu time      0.1382: real time      0.1395
       DOS:  cpu time      0.0002: real time      0.0002
    CHARGE:  cpu time      0.0432: real time      0.0437
    MIXING:  cpu time      0.0123: real time      0.0124
    --------------------------------------------
      LOOP:  cpu time      1.2501: real time      1.2592

 eigenvalue-minimisations  :    52
 total energy-change (2. order) :-0.3092317E-02  (-0.3257383E-04)
 number of electron       9.0000000 magnetization       0.9998010
 augmentation part       -0.2428841 magnetization      -0.1503768

 Broyden mixing:
  rms(total) = 0.34170E-03    rms(broyden)= 0.34169E-03
  rms(prec ) = 0.36872E-03
  weight for this iteration     100.00

 eigenvalues of (default mixing * dielectric matrix)
  average eigenvalue GAMMA=   1.3707
  4.2460  2.3796  2.3796  1.3561  0.9885  0.9885  1.0205  0.7435  0.6212  0.6212
  0.5805  0.5227

 Free energy of the ion-electron system (eV)
  ---------------------------------------------------
  alpha Z        PSCENC =         0.26356293
  Ewald energy   TEWEN  =       -91.41729252
  -Hartree energ DENC   =      -443.14214732
  -exchange      EXHF   =         0.00000000
  -V(xc)+E(xc)   XCENC  =        28.14681182
  PAW double counting   =       505.95208813     -501.41098654
  entropy T*S    EENTRO =        -0.00000000
  eigenvalues    EBANDS =      -161.05316847
  atomic energy  EATOM  =       662.50282877
  Solvation  Ediel_sol  =         0.00000000
  ---------------------------------------------------
  free energy    TOTEN  =        -0.15830321 eV

  energy without entropy =       -0.15830321  energy(sigma->0) =       -0.15830321


--------------------------------------------------------------------------------------------------------




--------------------------------------- Iteration      1(  18)  ---------------------------------------


    POTLOK:  cpu time      0.5988: real time      0.6026
    SETDIJ:  cpu time      0.4723: real time      0.4745
     EDDAV:  cpu time      0.1541: real time      0.1557
       DOS:  cpu time      0.0002: real time      0.0002
    CHARGE:  cpu time      0.0430: real time      0.0435
    MIXING:  cpu time      0.0125: real time      0.0126
    --------------------------------------------
      LOOP:  cpu time      1.2809: real time      1.2891

 eigenvalue-minimisations  :    60
 total energy-change (2. order) :-0.5396694E-03  (-0.5010729E-05)
 number of electron       9.0000000 magnetization       0.9999065
 augmentation part       -0.2429364 magnetization      -0.1503098

 Broyden mixing:
  rms(total) = 0.12021E-03    rms(broyden)= 0.12020E-03
  rms(prec ) = 0.15217E-03
  weight for this iteration     100.00

 eigenvalues of (default mixing * dielectric matrix)
  average eigenvalue GAMMA=   1.3901
  4.2732  2.5678  2.5678  1.6552  0.9710  0.9710  0.9928  0.9928  0.6719  0.6053
  0.6053  0.5984  0.5984

 Free energy of the ion-electron system (eV)
  ---------------------------------------------------
  alpha Z        PSCENC =         0.26356293
  Ewald energy   TEWEN  =       -91.41729252
  -Hartree energ DENC   =      -443.14712794
  -exchange      EXHF   =         0.00000000
  -V(xc)+E(xc)   XCENC  =        28.14677432
  PAW double counting   =       505.95600379     -501.41555281
  entropy T*S    EENTRO =        -0.00000000
  eigenvalues    EBANDS =      -161.04803941
  atomic energy  EATOM  =       662.50282877
  Solvation  Ediel_sol  =         0.00000000
  ---------------------------------------------------
  free energy    TOTEN  =        -0.15884288 eV

  energy without entropy =       -0.15884288  energy(sigma->0) =       -0.15884288


--------------------------------------------------------------------------------------------------------




--------------------------------------- Iteration      1(  19)  ---------------------------------------


    POTLOK:  cpu time      0.5924: real time      0.5967
    SETDIJ:  cpu time      0.4727: real time      0.4752
     EDDAV:  cpu time      0.1421: real time      0.1436
       DOS:  cpu time      0.0002: real time      0.0002
    CHARGE:  cpu time      0.0430: real time      0.0436
    MIXING:  cpu time      0.0125: real time      0.0126
    --------------------------------------------
      LOOP:  cpu time      1.2628: real time      1.2718

 eigenvalue-minimisations  :    54
 total energy-change (2. order) :-0.7479285E-03  (-0.2601676E-05)
 number of electron       9.0000000 magnetization       1.0000122
 augmentation part       -0.2429409 magnetization      -0.1501934

 Broyden mixing:
  rms(total) = 0.64267E-04    rms(broyden)= 0.64262E-04
  rms(prec ) = 0.89019E-04
  weight for this iteration     100.00

 eigenvalues of (default mixing * dielectric matrix)
  average eigenvalue GAMMA=   1.4628
  4.8948  2.7888  2.7888  1.9542  1.1263  1.1263  0.9910  0.9910  0.7240  0.7240
  0.5939  0.5939  0.5910  0.5910

 Free energy of the ion-electron system (eV)
  ---------------------------------------------------
  alpha Z        PSCENC =         0.26356293
  Ewald energy   TEWEN  =       -91.41729252
  -Hartree energ DENC   =      -443.14893302
  -exchange      EXHF   =         0.00000000
  -V(xc)+E(xc)   XCENC  =        28.14632487
  PAW double counting   =       505.97075833     -501.43033641
  entropy T*S    EENTRO =        -0.00000000
  eigenvalues    EBANDS =      -161.04650376
  atomic energy  EATOM  =       662.50282877
  Solvation  Ediel_sol  =         0.00000000
  ---------------------------------------------------
  free energy    TOTEN  =        -0.15959081 eV

  energy without entropy =       -0.15959081  energy(sigma->0) =       -0.15959081


--------------------------------------------------------------------------------------------------------




--------------------------------------- Iteration      1(  20)  ---------------------------------------


    POTLOK:  cpu time      0.5676: real time      0.5709
    SETDIJ:  cpu time      0.4723: real time      0.4746
     EDDAV:  cpu time      0.1381: real time      0.1395
       DOS:  cpu time      0.0002: real time      0.0002
    CHARGE:  cpu time      0.0422: real time      0.0427
    MIXING:  cpu time      0.0131: real time      0.0132
    --------------------------------------------
      LOOP:  cpu time      1.2334: real time      1.2411

 eigenvalue-minimisations  :    52
 total energy-change (2. order) :-0.5235206E-03  (-0.1973660E-05)
 number of electron       9.0000000 magnetization       1.0000247
 augmentation part       -0.2429189 magnetization      -0.1501562

 Broyden mixing:
  rms(total) = 0.44586E-04    rms(broyden)= 0.44585E-04
  rms(prec ) = 0.57468E-04
  weight for this iteration     100.00

 eigenvalues of (default mixing * dielectric matrix)
  average eigenvalue GAMMA=   1.5207
  5.5329  3.0712  3.0712  2.0325  1.4250  1.0179  1.0179  0.9432  0.9432  0.6923
  0.6923  0.6008  0.6008  0.5842  0.5842

 Free energy of the ion-electron system (eV)
  ---------------------------------------------------
  alpha Z        PSCENC =         0.26356293
  Ewald energy   TEWEN  =       -91.41729252
  -Hartree energ DENC   =      -443.14533596
  -exchange      EXHF   =         0.00000000
  -V(xc)+E(xc)   XCENC  =        28.14567576
  PAW double counting   =       505.95988655     -501.41953345
  entropy T*S    EENTRO =        -0.00000000
  eigenvalues    EBANDS =      -161.04990640
  atomic energy  EATOM  =       662.50282877
  Solvation  Ediel_sol  =         0.00000000
  ---------------------------------------------------
  free energy    TOTEN  =        -0.16011433 eV

  energy without entropy =       -0.16011433  energy(sigma->0) =       -0.16011433


--------------------------------------------------------------------------------------------------------




--------------------------------------- Iteration      1(  21)  ---------------------------------------


    POTLOK:  cpu time      0.5666: real time      0.5715
    SETDIJ:  cpu time      0.4716: real time      0.4739
     EDDAV:  cpu time      0.1402: real time      0.1416
       DOS:  cpu time      0.0002: real time      0.0002
    CHARGE:  cpu time      0.0416: real time      0.0421
    MIXING:  cpu time      0.0132: real time      0.0133
    --------------------------------------------
      LOOP:  cpu time      1.2335: real time      1.2426

 eigenvalue-minimisations  :    54
 total energy-change (2. order) :-0.4100009E-04  (-0.1776694E-06)
 number of electron       9.0000000 magnetization       1.0000222
 augmentation part       -0.2429191 magnetization      -0.1501582

 Broyden mixing:
  rms(total) = 0.23740E-04    rms(broyden)= 0.23740E-04
  rms(prec ) = 0.33698E-04
  weight for this iteration     100.00

 eigenvalues of (default mixing * dielectric matrix)
  average eigenvalue GAMMA=   1.5351
  5.8555  3.1166  3.1166  2.3314  1.5496  1.0792  1.0792  0.9845  0.9845  0.7389
  0.7389  0.5915  0.5915  0.5840  0.5840  0.6361

 Free energy of the ion-electron system (eV)
  ---------------------------------------------------
  alpha Z        PSCENC =         0.26356293
  Ewald energy   TEWEN  =       -91.41729252
  -Hartree energ DENC   =      -443.14590778
  -exchange      EXHF   =         0.00000000
  -V(xc)+E(xc)   XCENC  =        28.14568262
  PAW double counting   =       505.95095880     -501.41078212
  entropy T*S    EENTRO =        -0.00000000
  eigenvalues    EBANDS =      -161.04920601
  atomic energy  EATOM  =       662.50282877
  Solvation  Ediel_sol  =         0.00000000
  ---------------------------------------------------
  free energy    TOTEN  =        -0.16015533 eV

  energy without entropy =       -0.16015533  energy(sigma->0) =       -0.16015533


--------------------------------------------------------------------------------------------------------




--------------------------------------- Iteration      1(  22)  ---------------------------------------


    POTLOK:  cpu time      0.5719: real time      0.5765
    SETDIJ:  cpu time      0.4719: real time      0.4742
     EDDAV:  cpu time      0.1216: real time      0.1229
       DOS:  cpu time      0.0002: real time      0.0002
    CHARGE:  cpu time      0.0446: real time      0.0453
    MIXING:  cpu time      0.0132: real time      0.0133
    --------------------------------------------
      LOOP:  cpu time      1.2234: real time      1.2324

 eigenvalue-minimisations  :    42
 total energy-change (2. order) :-0.3108961E-04  (-0.9557443E-07)
 number of electron       9.0000000 magnetization       1.0000192
 augmentation part       -0.2429198 magnetization      -0.1501642

 Broyden mixing:
  rms(total) = 0.26736E-04    rms(broyden)= 0.26736E-04
  rms(prec ) = 0.32344E-04
  weight for this iteration     100.00

 eigenvalues of (default mixing * dielectric matrix)
  average eigenvalue GAMMA=   1.5539
  5.9408  3.4624  2.7697  2.7697  1.5272  1.5272  1.0463  1.0463  0.9666  0.9666
  0.7029  0.7029  0.5966  0.5966  0.5857  0.5857  0.6229

 Free energy of the ion-electron system (eV)
  ---------------------------------------------------
  alpha Z        PSCENC =         0.26356293
  Ewald energy   TEWEN  =       -91.41729252
  -Hartree energ DENC   =      -443.14622915
  -exchange      EXHF   =         0.00000000
  -V(xc)+E(xc)   XCENC  =        28.14567453
  PAW double counting   =       505.94841113     -501.40826755
  entropy T*S    EENTRO =        -0.00000000
  eigenvalues    EBANDS =      -161.04887455
  atomic energy  EATOM  =       662.50282877
  Solvation  Ediel_sol  =         0.00000000
  ---------------------------------------------------
  free energy    TOTEN  =        -0.16018642 eV

  energy without entropy =       -0.16018642  energy(sigma->0) =       -0.16018642


--------------------------------------------------------------------------------------------------------




--------------------------------------- Iteration      1(  23)  ---------------------------------------


    POTLOK:  cpu time      0.6086: real time      0.6139
    SETDIJ:  cpu time      0.4720: real time      0.4743
     EDDAV:  cpu time      0.1260: real time      0.1272
       DOS:  cpu time      0.0002: real time      0.0002
    CHARGE:  cpu time      0.0429: real time      0.0433
    MIXING:  cpu time      0.0135: real time      0.0136
    --------------------------------------------
      LOOP:  cpu time      1.2630: real time      1.2725

 eigenvalue-minimisations  :    46
 total energy-change (2. order) :-0.2400349E-04  (-0.2692328E-07)
 number of electron       9.0000000 magnetization       1.0000066
 augmentation part       -0.2429188 magnetization      -0.1501760

 Broyden mixing:
  rms(total) = 0.10010E-04    rms(broyden)= 0.10009E-04
  rms(prec ) = 0.15675E-04
  weight for this iteration     100.00

 eigenvalues of (default mixing * dielectric matrix)
  average eigenvalue GAMMA=   1.5815
  6.0392  3.6113  2.9682  2.9682  1.9964  1.5494  0.9975  0.9975  1.0455  1.0455
  0.7725  0.7725  0.7030  0.5997  0.5997  0.5861  0.5861  0.6291

 Free energy of the ion-electron system (eV)
  ---------------------------------------------------
  alpha Z        PSCENC =         0.26356293
  Ewald energy   TEWEN  =       -91.41729252
  -Hartree energ DENC   =      -443.14541258
  -exchange      EXHF   =         0.00000000
  -V(xc)+E(xc)   XCENC  =        28.14558916
  PAW double counting   =       505.94923611     -501.40901174
  entropy T*S    EENTRO =        -0.00000000
  eigenvalues    EBANDS =      -161.04971054
  atomic energy  EATOM  =       662.50282877
  Solvation  Ediel_sol  =         0.00000000
  ---------------------------------------------------
  free energy    TOTEN  =        -0.16021042 eV

  energy without entropy =       -0.16021042  energy(sigma->0) =       -0.16021042


--------------------------------------------------------------------------------------------------------




--------------------------------------- Iteration      1(  24)  ---------------------------------------


    POTLOK:  cpu time      0.5908: real time      0.5950
    SETDIJ:  cpu time      0.4721: real time      0.4746
     EDDAV:  cpu time      0.1213: real time      0.1225
       DOS:  cpu time      0.0002: real time      0.0002
    CHARGE:  cpu time      0.0433: real time      0.0438
    MIXING:  cpu time      0.0138: real time      0.0139
    --------------------------------------------
      LOOP:  cpu time      1.2415: real time      1.2500

 eigenvalue-minimisations  :    42
 total energy-change (2. order) :-0.1716866E-04  (-0.8080544E-08)
 number of electron       9.0000000 magnetization       1.0000029
 augmentation part       -0.2429200 magnetization      -0.1501810

 Broyden mixing:
  rms(total) = 0.10484E-04    rms(broyden)= 0.10484E-04
  rms(prec ) = 0.11946E-04
  weight for this iteration     100.00

 eigenvalues of (default mixing * dielectric matrix)
  average eigenvalue GAMMA=   1.6458
  6.2570  4.4533  3.0166  3.0166  2.5696  1.5343  1.3087  1.0341  1.0341  0.9606
  0.9606  0.7330  0.7330  0.5963  0.5963  0.6707  0.5845  0.5845  0.6259

 Free energy of the ion-electron system (eV)
  ---------------------------------------------------
  alpha Z        PSCENC =         0.26356293
  Ewald energy   TEWEN  =       -91.41729252
  -Hartree energ DENC   =      -443.14528739
  -exchange      EXHF   =         0.00000000
  -V(xc)+E(xc)   XCENC  =        28.14554715
  PAW double counting   =       505.95015135     -501.40989182
  entropy T*S    EENTRO =        -0.00000000
  eigenvalues    EBANDS =      -161.04984605
  atomic energy  EATOM  =       662.50282877
  Solvation  Ediel_sol  =         0.00000000
  ---------------------------------------------------
  free energy    TOTEN  =        -0.16022759 eV

  energy without entropy =       -0.16022759  energy(sigma->0) =       -0.16022759


--------------------------------------------------------------------------------------------------------




--------------------------------------- Iteration      1(  25)  ---------------------------------------


    POTLOK:  cpu time      0.5807: real time      0.5855
    SETDIJ:  cpu time      0.4722: real time      0.4747
     EDDAV:  cpu time      0.1068: real time      0.1079
       DOS:  cpu time      0.0002: real time      0.0002
    --------------------------------------------
      LOOP:  cpu time      1.1598: real time      1.1682

 eigenvalue-minimisations  :    34
 total energy-change (2. order) :-0.6446529E-05  (-0.4278782E-08)
 number of electron       9.0000000 magnetization       1.0000029
 augmentation part       -0.2429200 magnetization      -0.1501810

 Free energy of the ion-electron system (eV)
  ---------------------------------------------------
  alpha Z        PSCENC =         0.26356293
  Ewald energy   TEWEN  =       -91.41729252
  -Hartree energ DENC   =      -443.14563008
  -exchange      EXHF   =         0.00000000
  -V(xc)+E(xc)   XCENC  =        28.14556014
  PAW double counting   =       505.95027916     -501.41003680
  entropy T*S    EENTRO =        -0.00000000
  eigenvalues    EBANDS =      -161.04950563
  atomic energy  EATOM  =       662.50282877
  Solvation  Ediel_sol  =         0.00000000
  ---------------------------------------------------
  free energy    TOTEN  =        -0.16023403 eV

  energy without entropy =       -0.16023403  energy(sigma->0) =       -0.16023403


--------------------------------------------------------------------------------------------------------




 average (electrostatic) potential at core
  the test charge radii are     1.1097
  (the norm of the test charge is              1.0000)
       1 -44.1337
 
 
 
 E-fermi :  -1.9577     XC(G=0):  -0.2821     alpha+bet : -0.0503

 Fermi energy:        -1.9576511213

 spin component 1

 k-point     1 :       0.0000    0.0000    0.0000
  band No.  band energies     occupation 
      1     -31.8048      1.00000
      2     -15.8947      1.00000
      3     -15.8947      1.00000
      4     -15.8947      1.00000
      5      -2.3870      1.00000
      6      -0.8382      0.00000
      7      -0.8378      0.00000
      8      -0.8375      0.00000
      9      -0.2114      0.00000
     10      -0.1005      0.00000
 Fermi energy:        -1.9576511213

 spin component 2

 k-point     1 :       0.0000    0.0000    0.0000
  band No.  band energies     occupation 
      1     -31.7539      1.00000
      2     -15.8066      1.00000
      3     -15.8066      1.00000
      4     -15.8066      1.00000
      5      -1.5283      0.00000
      6       0.0850      0.00000
      7       0.2111      0.00000
      8       0.2131      0.00000
      9       0.2149      0.00000
     10       0.4564      0.00000


--------------------------------------------------------------------------------------------------------


 soft charge-density along one line, spin component           1
         0         1         2         3         4         5         6         7         8         9
 total charge-density along one line
 
 soft charge-density along one line, spin component           2
         0         1         2         3         4         5         6         7         8         9
 total charge-density along one line
 
 pseudopotential strength for first ion, spin component:           1
 -3.073  -3.826   0.000   0.000  -0.000   0.000   0.000  -0.000
 -3.826   0.525  -0.000   0.000   0.000  -0.000   0.000   0.000
  0.000  -0.000 -11.100   0.000  -0.000 -11.056   0.000  -0.000
  0.000   0.000   0.000 -11.100   0.000   0.000 -11.056   0.000
 -0.000   0.000  -0.000   0.000 -11.100  -0.000   0.000 -11.056
  0.000  -0.000 -11.056   0.000  -0.000 -11.008   0.000  -0.000
  0.000   0.000   0.000 -11.056   0.000   0.000 -11.008   0.000
 -0.000   0.000  -0.000   0.000 -11.056  -0.000   0.000 -11.008
 -0.000  -0.000  -0.000   0.000   0.000  -0.000   0.000   0.000
 -0.000   0.000  -0.000   0.000   0.000  -0.000   0.000   0.000
 -0.000   0.000  -0.000  -0.000   0.000  -0.000  -0.000   0.000
  0.000  -0.000   0.000  -0.000  -0.000   0.000  -0.000  -0.000
  0.000   0.000  -0.000  -0.000  -0.000  -0.000  -0.000  -0.000
 pseudopotential strength for first ion, spin component:           2
 -3.188  -3.737   0.000  -0.000  -0.000   0.000  -0.000  -0.000
 -3.737   0.467  -0.000   0.000   0.000  -0.000   0.000   0.000
  0.000  -0.000 -11.076  -0.000   0.000 -11.032  -0.000   0.000
 -0.000   0.000  -0.000 -11.076  -0.000  -0.000 -11.032  -0.000
 -0.000   0.000   0.000  -0.000 -11.076   0.000  -0.000 -11.032
  0.000  -0.000 -11.032  -0.000   0.000 -10.984  -0.000   0.000
 -0.000   0.000  -0.000 -11.032  -0.000  -0.000 -10.984  -0.000
 -0.000   0.000   0.000  -0.000 -11.032   0.000  -0.000 -10.984
  0.000  -0.000  -0.000   0.000   0.000  -0.000   0.000   0.000
 -0.000   0.000  -0.000   0.000   0.000  -0.000   0.000   0.000
  0.000   0.000  -0.000  -0.000   0.000  -0.000  -0.000   0.000
 -0.000  -0.000   0.000  -0.000  -0.000   0.000  -0.000  -0.000
  0.000   0.000  -0.000   0.000  -0.000  -0.000   0.000  -0.000
 total augmentation occupancy for first ion, spin component:           1
  2.000  -0.002  -0.000  -0.000  -0.000   0.000   0.000   0.000   0.000  -0.000   0.000   0.000  -0.000
 -0.002   1.016   0.000   0.000  -0.000  -0.000  -0.000   0.000   0.000  -0.000  -0.000  -0.000   0.000
 -0.000   0.000   2.006  -0.000   0.000  -0.005   0.000  -0.000   0.000   0.000   0.000  -0.000   0.000
 -0.000   0.000  -0.000   2.005  -0.000   0.000  -0.005   0.000  -0.000  -0.000  -0.000   0.000   0.000
 -0.000  -0.000   0.000  -0.000   2.005  -0.000   0.000  -0.005  -0.000  -0.000  -0.000  -0.000   0.000
  0.000  -0.000  -0.005   0.000  -0.000   0.005  -0.000   0.000  -0.000  -0.000  -0.000   0.000  -0.000
  0.000  -0.000   0.000  -0.005   0.000  -0.000   0.005  -0.000   0.000   0.000  -0.000  -0.000  -0.000
  0.000   0.000  -0.000   0.000  -0.005   0.000  -0.000   0.005   0.000   0.000   0.000  -0.000  -0.000
  0.000   0.000   0.000  -0.000  -0.000  -0.000   0.000   0.000   0.000  -0.000  -0.000  -0.000   0.000
 -0.000  -0.000   0.000  -0.000  -0.000  -0.000   0.000   0.000  -0.000   0.000   0.000   0.000  -0.000
  0.000  -0.000   0.000  -0.000  -0.000  -0.000  -0.000   0.000  -0.000   0.000   0.000   0.000  -0.000
  0.000  -0.000  -0.000   0.000  -0.000   0.000  -0.000  -0.000  -0.000   0.000   0.000   0.000  -0.000
 -0.000   0.000   0.000   0.000   0.000  -0.000  -0.000  -0.000   0.000  -0.000  -0.000  -0.000   0.000
 total augmentation occupancy for first ion, spin component:           2
 -0.005  -0.012   0.000  -0.000  -0.000  -0.000   0.000   0.000  -0.000   0.000  -0.000  -0.000   0.000
 -0.012   1.016   0.000   0.000  -0.000  -0.000  -0.000   0.000   0.000  -0.000  -0.000  -0.000   0.000
  0.000   0.000  -0.200   0.000  -0.000   0.097  -0.000   0.000  -0.000  -0.000  -0.000   0.000  -0.000
 -0.000   0.000   0.000  -0.200   0.000  -0.000   0.097  -0.000   0.000   0.000  -0.000  -0.000  -0.000
 -0.000  -0.000  -0.000   0.000  -0.200   0.000  -0.000   0.097   0.000   0.000   0.000  -0.000  -0.000
 -0.000  -0.000   0.097  -0.000   0.000  -0.000   0.000  -0.000   0.000   0.000   0.000  -0.000   0.000
  0.000  -0.000  -0.000   0.097  -0.000   0.000  -0.000   0.000  -0.000  -0.000  -0.000   0.000  -0.000
  0.000   0.000   0.000  -0.000   0.097  -0.000   0.000  -0.000  -0.000  -0.000  -0.000  -0.000   0.000
 -0.000   0.000  -0.000   0.000   0.000   0.000  -0.000  -0.000   0.000  -0.000  -0.000  -0.000   0.000
  0.000  -0.000  -0.000   0.000   0.000   0.000  -0.000  -0.000  -0.000   0.000   0.000   0.000  -0.000
 -0.000  -0.000  -0.000  -0.000   0.000   0.000  -0.000  -0.000  -0.000   0.000   0.000   0.000  -0.000
 -0.000  -0.000   0.000  -0.000  -0.000  -0.000   0.000  -0.000  -0.000   0.000   0.000   0.000  -0.000
  0.000   0.000  -0.000  -0.000  -0.000   0.000  -0.000   0.000   0.000  -0.000  -0.000  -0.000   0.000


------------------------ aborting loop because EDIFF is reached ----------------------------------------


    CHARGE:  cpu time      0.0429: real time      0.0435
    FORLOC:  cpu time      0.0036: real time      0.0036
    FORNL :  cpu time      0.0088: real time      0.0089
    STRESS:  cpu time      0.0362: real time      0.0365
    FORCOR:  cpu time      0.5581: real time      0.5621
    FORHAR:  cpu time      0.0547: real time      0.0550
    MIXING:  cpu time      0.0153: real time      0.0156
    OFIELD:  cpu time      0.0001: real time      0.0001

  FORCE on cell =-STRESS in cart. coord.  units (eV):
  Direction    XX          YY          ZZ          XY          YZ          ZX
  --------------------------------------------------------------------------------------
  Alpha Z     0.26356     0.26356     0.26356
  Ewald     -29.95941   -30.47281   -30.98507     0.00000     0.00000     0.00000
  Hartree   148.21666   147.71510   147.21455     0.00005    -0.00004    -0.00002
  E(xc)     -31.56380   -31.56380   -31.56380     0.00000    -0.00000    -0.00000
  Local    -165.34409  -164.32911  -163.31628    -0.00007     0.00005     0.00002
  n-local   -44.86472   -44.86466   -44.86461    -0.00000     0.00000     0.00000
  augment    -1.27104    -1.27101    -1.27099     0.00000    -0.00000    -0.00000
  Kinetic   124.52054   124.52058   124.52061     0.00001    -0.00000    -0.00000
  Fock        0.00000     0.00000     0.00000     0.00000     0.00000     0.00000
  -------------------------------------------------------------------------------------
  Total      -0.00230    -0.00216    -0.00203    -0.00001     0.00001     0.00000
  in kB      -0.00062    -0.00058    -0.00055    -0.00000     0.00000     0.00000
  external pressure =       -0.00 kB  Pullay stress =        0.00 kB


 VOLUME and BASIS-vectors are now :
 -----------------------------------------------------------------------------
  energy-cutoff  :      520.00
  volume of cell :     5929.56
      direct lattice vectors                 reciprocal lattice vectors
    18.000000000  0.000000000  0.000000000     0.055555556 -0.000000000  0.000000000
     0.000000000 18.100000000  0.000000000     0.000000000  0.055248619  0.000000000
     0.000000000  0.000000000 18.200000000    -0.000000000 -0.000000000  0.054945055

  length of vectors
    18.000000000 18.100000000 18.200000000     0.055555556  0.055248619  0.054945055


 FORCES acting on ions
    electron-ion (+dipol)            ewald-force                    non-local-force                 convergence-correction
 -----------------------------------------------------------------------------------------------
   0.881E-05 -.867E-05 0.254E-06   -.317E-17 -.156E-16 -.854E-18   -.423E-05 0.378E-05 -.441E-06   -.371E-05 0.470E-05 0.231E-06
 -----------------------------------------------------------------------------------------------
   0.881E-05 -.867E-05 0.254E-06   -.317E-17 -.156E-16 -.854E-18   -.423E-05 0.378E-05 -.441E-06   -.371E-05 0.470E-05 0.231E-06
 
 
 POSITION                                       TOTAL-FORCE (eV/Angst)
 -----------------------------------------------------------------------------------
      0.00000      0.00000      0.00000         0.000001     -0.000000      0.000000
 -----------------------------------------------------------------------------------
    total drift:                                0.000001     -0.000000      0.000000


--------------------------------------------------------------------------------------------------------



  FREE ENERGIE OF THE ION-ELECTRON SYSTEM (eV)
  ---------------------------------------------------
  free  energy   TOTEN  =        -0.16023403 eV

  energy  without entropy=       -0.16023403  energy(sigma->0) =       -0.16023403
 


--------------------------------------------------------------------------------------------------------


    POTLOK:  cpu time      1.0672: real time      1.0743


--------------------------------------------------------------------------------------------------------


     LOOP+:  cpu time     29.2136: real time     29.4239
    4ORBIT:  cpu time      0.0000: real time      0.0000

 total amount of memory used by VASP MPI-rank0    81882. kBytes
=======================================================================

   base      :      30000. kBytes
   nonl-proj :        297. kBytes
   fftplans  :      14937. kBytes
   grid      :      36243. kBytes
   one-center:          8. kBytes
   wavefun   :        397. kBytes
 
  
  
 General timing and accounting informations for this job:
 ========================================================
  
                  Total CPU time used (sec):       31.625
                            User time (sec):       28.311
                          System time (sec):        3.314
                         Elapsed time (sec):       32.384
  
                   Maximum memory used (kb):      497656.
                   Average memory used (kb):          N/A
  
                          Minor page faults:       126467
                          Major page faults:           44
                 Voluntary context switches:          876
