 vasp.6.4.2 20Jul23 (build Aug 07 2024 12:45:50) gamma-only                     
  
 executed on             LinuxIFC date 2026.09.30  12:24:23
 running   64 mpi-ranks, on    1 nodes
 distrk:  each k-point on   64 cores,    1 groups
 distr:  one band on NCORE=  32 cores,    2 groups


--------------------------------------------------------------------------------------------------------


 INCAR:
   ALGO = Normal
   EDIFF = 1e-05
   EFERMI = Midgap
   ENCUT = 520.0
   GGA = Pe
   GGA_COMPAT = False
   IBRION = -1
   ISMEAR = 0
   ISPIN = 1
   ISYM = 0
   LAECHG = False
   LASPH = True
   LCHARG = False
   LMAXMIX = 6
   LMIXTAU = True
   LREAL = False
   LWAVE = False
   NCORE = 32
   NELM = 400
   NSW = 0
   PREC = Accurate
   SIGMA = 0.05
   SYSTEM = Cl_atom_ispin1

 POTCAR:    PAW_PBE Cl 06Sep2000                  
 -----------------------------------------------------------------------------
|                                                                             |
|           W    W    AA    RRRRR   N    N  II  N    N   GGGG   !!!           |
|           W    W   A  A   R    R  NN   N  II  NN   N  G    G  !!!           |
|           W    W  A    A  R    R  N N  N  II  N N  N  G       !!!           |
|           W WW W  AAAAAA  RRRRR   N  N N  II  N  N N  G  GGG   !            |
|           WW  WW  A    A  R   R   N   NN  II  N   NN  G    G                |
|           W    W  A    A  R    R  N    N  II  N    N   GGGG   !!!           |
|                                                                             |
|     For optimal performance we recommend to set                             |
|       NCORE = 2 up to number-of-cores-per-socket                            |
|     NCORE specifies how many cores store one orbital (NPAR=cpu/NCORE).      |
|     This setting can greatly improve the performance of VASP for DFT.       |
|     The default, NCORE=1 might be grossly inefficient on modern             |
|     multi-core architectures or massively parallel machines. Do your        |
|     own testing! More info at https://www.vasp.at/wiki/index.php/NCORE      |
|     Unfortunately you need to use the default for GW and RPA                |
|     calculations (for HF NCORE is supported but not extensively tested      |
|     yet).                                                                   |
|                                                                             |
 -----------------------------------------------------------------------------

 POTCAR:    PAW_PBE Cl 06Sep2000                  
   SHA256 =  9f1b6e6ed4247ac726a768b330d26d7667cc3c95a39ff49c1d064c2d9dcce931 Cl/POTCAR             
   COPYR  = (c) Copyright 06Sep2000 Georg Kresse                                                    
   COPYR  = This file is part of the software VASP. Any use, copying, and all other rights are regul
   COPYR  = If you do not have a valid VASP license, you may not use, copy or distribute this file. 
   VRHFIN =Cl: s2p5                                                                                 
   LEXCH  = PE                                                                                      
   EATOM  =   409.7259 eV,   30.1140 Ry                                                             
                                                                                                    
   TITEL  = PAW_PBE Cl 06Sep2000                                                                    
   LULTRA =        F    use ultrasoft PP ?                                                          
   IUNSCR =        1    unscreen: 0-lin 1-nonlin 2-no                                               
   RPACOR =    1.500    partial core radius                                                         
   POMASS =   35.453; ZVAL   =    7.000    mass and valenz                                          
   RCORE  =    1.900    outmost cutoff radius                                                       
   RWIGS  =    2.100; RWIGS  =    1.111    wigner-seitz radius (au A)                               
   ENMAX  =  262.472; ENMIN  =  196.854 eV                                                          
   ICORE  =        2    local potential                                                             
   LCOR   =        T    correct aug charges                                                         
   LPAW   =        T    paw PP                                                                      
   EAUG   =  356.192                                                                                
   DEXC   =    0.000                                                                                
   RMAX   =    1.945    core radius for proj-oper                                                   
   RAUG   =    1.300    factor for augmentation sphere                                              
   RDEP   =    2.020    radius for radial grids                                                     
   RDEPT  =    1.678    core radius for aug-charge                                                  
                                                                                                    
   Atomic configuration                                                                             
    6 entries                                                                                       
     n  l   j            E        occ.                                                              
     1  0  0.50     -2751.1850   2.0000                                                             
     2  0  0.50      -252.6861   2.0000                                                             
     2  1  1.50      -191.6157   6.0000                                                             
     3  0  0.50       -20.6916   2.0000                                                             
     3  1  0.50        -8.5949   5.0000                                                             
     3  2  1.50        -8.1635   0.0000                                                             
   Description                                                                                      
     l       E           TYP  RCUT    TYP  RCUT                                                     
     0    -20.6915656     23  1.900                                                                 
     0    -22.0521482     23  1.900                                                                 
     1     -8.5948577     23  1.900                                                                 
     1     -5.3847331     23  1.900                                                                 
     2     -8.1634956     23  1.900                                                                 
  local pseudopotential read in
  partial core-charges read in
  partial kinetic energy density read in
  atomic valenz-charges read in
  non local Contribution for L=           0  read in
    real space projection operators read in
  non local Contribution for L=           0  read in
    real space projection operators read in
  non local Contribution for L=           1  read in
    real space projection operators read in
  non local Contribution for L=           1  read in
    real space projection operators read in
    PAW grid and wavefunctions read in
 
   number of l-projection  operators is LMAX  =           4
   number of lm-projection operators is LMMAX =           8
 
  PAW_PBE Cl 06Sep2000                  :
 energy of atom  1       EATOM= -409.7259
 kinetic energy error for atom=    0.0023 (will be added to EATOM!!)
 
 
 POSCAR: Cl1
  positions in direct lattice
  No initial velocities read in
 exchange correlation table for  LEXCH =        8
   RHO(1)=    0.500       N(1)  =     2000
   RHO(2)=  100.500       N(2)  =     4000
 


--------------------------------------------------------------------------------------------------------


 ion  position               nearest neighbor table
   1  0.000  0.000  0.000-
 

IMPORTANT INFORMATION: All symmetrisations will be switched off!
NOSYMM: (Re-)initialisation of all symmetry stuff for point group C_1.


----------------------------------------------------------------------------------------

                                     Primitive cell                                     

  volume of cell :    5929.5600

  direct lattice vectors                    reciprocal lattice vectors
    18.000000000  0.000000000  0.000000000     0.055555556 -0.000000000  0.000000000
     0.000000000 18.100000000  0.000000000     0.000000000  0.055248619  0.000000000
     0.000000000  0.000000000 18.200000000    -0.000000000 -0.000000000  0.054945055

  length of vectors
    18.000000000 18.100000000 18.200000000     0.055555556  0.055248619  0.054945055

  position of ions in fractional coordinates (direct lattice)
     0.000000000  0.000000000  0.000000000

  ion indices of the primitive-cell ions
   primitive index   ion index
                 1           1

----------------------------------------------------------------------------------------

 
 
 KPOINTS: Automatic kpoint scheme                 

Automatic generation of k-mesh.
 Grid dimensions read from file:
 generate k-points for:    1    1    1

 Generating k-lattice:

  Cartesian coordinates                     Fractional coordinates (reciprocal lattice)
     0.055555556 -0.000000000  0.000000000     1.000000000 -0.000000000  0.000000000
     0.000000000  0.055248619  0.000000000     0.000000000  1.000000000  0.000000000
    -0.000000000 -0.000000000  0.054945055    -0.000000000 -0.000000000  1.000000000

  Length of vectors
     0.055555556  0.055248619  0.054945055

  Shift w.r.t. Gamma in fractional coordinates (k-lattice)
     0.000000000  0.000000000  0.000000000

 
 Subroutine IBZKPT returns following result:
 ===========================================
 
 Found      1 irreducible k-points:
 
 Following reciprocal coordinates:
            Coordinates               Weight
  0.000000  0.000000  0.000000      1.000000
 
 Following cartesian coordinates:
            Coordinates               Weight
  0.000000  0.000000  0.000000      1.000000
 


--------------------------------------------------------------------------------------------------------




 Dimension of arrays:
   k-points           NKPTS =      1   k-points in BZ     NKDIM =      1   number of bands    NBANDS=      8
   number of dos      NEDOS =    301   number of ions     NIONS =      1
   non local maximal  LDIM  =      4   non local SUM 2l+1 LMDIM =      8
   total plane-waves  NPLWV = ******
   max r-space proj   IRMAX =      1   max aug-charges    IRDMAX=  13501
   dimension x,y,z NGX =   140 NGY =  140 NGZ =  140
   dimension x,y,z NGXF=   280 NGYF=  280 NGZF=  280
   support grid    NGXF=   280 NGYF=  280 NGZF=  280
   ions per type =               1
   NGX,Y,Z   is equivalent  to a cutoff of  12.93, 12.86, 12.79 a.u.
   NGXF,Y,Z  is equivalent  to a cutoff of  25.86, 25.72, 25.58 a.u.

 SYSTEM =  Cl_atom_ispin1                          
 POSCAR =  Cl1                                     

 Startparameter for this run:
   NWRITE =      2    write-flag & timer
   PREC   = accura    normal or accurate (medium, high low for compatibility)
   ISTART =      0    job   : 0-new  1-cont  2-samecut
   ICHARG =      2    charge: 1-file 2-atom 10-const
   ISPIN  =      1    spin polarized calculation?
   LNONCOLLINEAR =      F non collinear calculations
   LSORBIT =      F    spin-orbit coupling
   INIWAV =      1    electr: 0-lowe 1-rand  2-diag
   LASPH  =      T    aspherical Exc in radial PAW
 Electronic Relaxation 1
   ENCUT  =  520.0 eV  38.22 Ry    6.18 a.u.  33.47 33.65 33.84*2*pi/ulx,y,z
   ENINI  =  520.0     initial cutoff
   ENAUG  =  356.2 eV  augmentation charge cutoff
   NELM   =    400;   NELMIN=  2; NELMDL= -5     # of ELM steps 
   EDIFF  = 0.1E-04   stopping-criterion for ELM
   LREAL  =      F    real-space projection
   NLSPLINE    = F    spline interpolate recip. space projectors
   LCOMPAT=      F    compatible to vasp.4.4
   GGA_COMPAT  = F    GGA compatible to vasp.4.4-vasp.4.6
   LMAXPAW     = -100 max onsite density
   LMAXMIX     =    6 max onsite mixed and CHGCAR
   VOSKOWN=      0    Vosko Wilk Nusair interpolation
   ROPT   =    0.00000
 Ionic relaxation
   EDIFFG = 0.1E-03   stopping-criterion for IOM
   NSW    =      0    number of steps for IOM
   NBLOCK =      1;   KBLOCK =      1    inner block; outer block 
   IBRION =     -1    ionic relax: 0-MD 1-quasi-New 2-CG
   NFREE  =      0    steps in history (QN), initial steepest desc. (CG)
   ISIF   =      2    stress and relaxation
   IWAVPR =     10    prediction:  0-non 1-charg 2-wave 3-comb
   ISYM   =      0    0-nonsym 1-usesym 2-fastsym
   LCORR  =      T    Harris-Foulkes like correction to forces

   POTIM  = 0.5000    time-step for ionic-motion
   TEIN   =    0.0    initial temperature
   TEBEG  =    0.0;   TEEND  =   0.0 temperature during run
   SMASS  =  -3.00    Nose mass-parameter (am)
   estimated Nose-frequenzy (Omega)   =  0.10E-29 period in steps = 0.13E+47 mass=  -0.740E-26a.u.
   SCALEE = 1.0000    scale energy and forces
   NPACO  =    256;   APACO  = 10.0  distance and # of slots for P.C.
   PSTRESS=    0.0 pullay stress

  Mass of Ions in am
   POMASS =  35.45
  Ionic Valenz
   ZVAL   =   7.00
  Atomic Wigner-Seitz radii
   RWIGS  =  -1.00
  virtual crystal weights 
   VCA    =   1.00
   NELECT =       7.0000    total number of electrons
   NUPDOWN=      -1.0000    fix difference up-down

 DOS related values:
   EMIN   =  10.00;   EMAX   =-10.00  energy-range for DOS
   EFERMI =   0.00;   METHOD = MIDGAP      
   ISMEAR =     0;   SIGMA  =   0.05  broadening in eV -4-tet -1-fermi 0-gaus

 Electronic relaxation 2 (details)
   IALGO  =     38    algorithm
   LDIAG  =      T    sub-space diagonalisation (order eigenvalues)
   LSUBROT=      F    optimize rotation matrix (better conditioning)
   TURBO    =      0    0=normal 1=particle mesh
   IRESTART =      0    0=no restart 2=restart with 2 vectors
   NREBOOT  =      0    no. of reboots
   NMIN     =      0    reboot dimension
   EREF     =   0.00    reference energy to select bands
   IMIX   =      4    mixing-type and parameters
     AMIX     =   0.40;   BMIX     =  1.00
     AMIX_MAG =   1.60;   BMIX_MAG =  1.00
     AMIN     =   0.10
     WC   =   100.;   INIMIX=   1;  MIXPRE=   1;  MAXMIX= -45

 Intra band minimization:
   WEIMIN = 0.0000     energy-eigenvalue tresh-hold
   EBREAK =  0.31E-06  absolut break condition
   DEPER  =   0.30     relativ break condition  

   TIME   =   0.40     timestep for ELM

  volume/ion in A,a.u.               =    5929.56     40014.65
  Fermi-wavevector in a.u.,A,eV,Ry     =   0.173021  0.326963  0.407310  0.029936
  Thomas-Fermi vector in A             =   0.886960
 
 Write flags
   LWAVE        =      F    write WAVECAR
   LDOWNSAMPLE  =      F    k-point downsampling of WAVECAR
   LCHARG       =      F    write CHGCAR
   LVTOT        =      F    write LOCPOT, total local potential
   LVHAR        =      F    write LOCPOT, Hartree potential only
   LELF         =      F    write electronic localiz. function (ELF)
   LORBIT       =      0    0 simple, 1 ext, 2 COOP (PROOUT), +10 PAW based schemes


 Dipole corrections
   LMONO  =      F    monopole corrections only (constant potential shift)
   LDIPOL =      F    correct potential (dipole corrections)
   IDIPOL =      0    1-x, 2-y, 3-z, 4-all directions 
   EPSILON=  1.0000000 bulk dielectric constant

 Exchange correlation treatment:
   GGA     =    PE    GGA type
   LEXCH   =     8    internal setting for exchange type
   LIBXC   =     F    Libxc                    
   VOSKOWN =     0    Vosko Wilk Nusair interpolation
   LHFCALC =     F    Hartree Fock is set to
   LHFONE  =     F    Hartree Fock one center treatment
   AEXX    =    0.0000 exact exchange contribution

 Linear response parameters
   LEPSILON=     F    determine dielectric tensor
   LRPA    =     F    only Hartree local field effects (RPA)
   LNABLA  =     F    use nabla operator in PAW spheres
   LVEL    =     F    velocity operator in full k-point grid
   CSHIFT  =0.1000    complex shift for real part using Kramers Kronig
   OMEGAMAX=  -1.0    maximum frequency
   DEG_THRESHOLD= 0.2000000E-02 threshold for treating states as degnerate
   RTIME   =   -0.100 relaxation time in fs
  (WPLASMAI=    0.000 imaginary part of plasma frequency in eV, 0.658/RTIME)
   DFIELD  = 0.0000000 0.0000000 0.0000000 field for delta impulse in time
 
  Optional k-point grid parameters
   LKPOINTS_OPT  =     F    use optional k-point grid
   KPOINTS_OPT_MODE=     1    mode for optional k-point grid
 
 Orbital magnetization related:
   ORBITALMAG=     F  switch on orbital magnetization
   LCHIMAG   =     F  perturbation theory with respect to B field
   DQ        =  0.001000  dq finite difference perturbation B field
   LLRAUG    =     F  two centre corrections for induced B field
   LBONE     =     F  B-component reconstruction in AE one-centre
   LVGVCALC  =     T  calculate vGv susceptibility
   LVGVAPPL  =     F  apply vGv susceptibility instead of pGv for G=0

 Random number generation:
   RANDOM_GENERATOR = DEFAULT
   PCG_SEED         = not used


--------------------------------------------------------------------------------------------------------


 Static calculation
 charge density and potential will be updated during run
 non-spin polarized calculation
 Variant of blocked Davidson
 Davidson routine will perform the subspace rotation
 perform sub-space diagonalisation
    after iterative eigenvector-optimisation
 modified Broyden-mixing scheme, WC =      100.0
 initial mixing is a Kerker type mixing with AMIX =  0.4000 and BMIX =      1.0000
 Hartree-type preconditioning will be used
 using additional bands            4
 reciprocal scheme for non local part
 use partial core corrections
 calculate Harris-corrections to forces 
   (improved forces if not selfconsistent)
 use gradient corrections 
 use of overlap-Matrix (Vanderbilt PP)
 Gauss-broadening in eV      SIGMA  =   0.05


--------------------------------------------------------------------------------------------------------


  energy-cutoff  :      520.00
  volume of cell :     5929.56
      direct lattice vectors                 reciprocal lattice vectors
    18.000000000  0.000000000  0.000000000     0.055555556 -0.000000000  0.000000000
     0.000000000 18.100000000  0.000000000     0.000000000  0.055248619  0.000000000
     0.000000000  0.000000000 18.200000000    -0.000000000 -0.000000000  0.054945055

  length of vectors
    18.000000000 18.100000000 18.200000000     0.055555556  0.055248619  0.054945055


 
 k-points in units of 2pi/SCALE and weight: Automatic kpoint scheme                 
   0.00000000  0.00000000  0.00000000       1.000
 
 k-points in reciprocal lattice and weights: Automatic kpoint scheme                 
   0.00000000  0.00000000  0.00000000       1.000
 
 position of ions in fractional coordinates (direct lattice) 
   0.00000000  0.00000000  0.00000000
 
 position of ions in cartesian coordinates  (Angst):
   0.00000000  0.00000000  0.00000000
 


--------------------------------------------------------------------------------------------------------


 use parallel FFT for orbitals z direction half grid
 k-point   1 :   0.0000 0.0000 0.0000  plane waves:   79868

 maximum and minimum number of plane-waves per node :      2508     2479

 maximum number of plane-waves:     79868
 maximum index in each direction: 
   IXMAX=   33   IYMAX=   33   IZMAX=   33
   IXMIN=  -33   IYMIN=  -33   IZMIN=    0


 parallel 3D FFT for wavefunctions:
    minimum data exchange during FFTs selected (reduces bandwidth)
 parallel 3D FFT for charge:
    minimum data exchange during FFTs selected (reduces bandwidth)


 total amount of memory used by VASP MPI-rank0    68130. kBytes
=======================================================================

   base      :      30000. kBytes
   nonl-proj :        198. kBytes
   fftplans  :      14937. kBytes
   grid      :      22836. kBytes
   one-center:          1. kBytes
   wavefun   :        158. kBytes
 
     INWAV:  cpu time      0.0000: real time      0.0000
 Broyden mixing: mesh for mixing (old mesh)
   NGX = 67   NGY = 67   NGZ = 67
  (NGX  =280   NGY  =280   NGZ  =280)
  gives a total of 300763 points

 initial charge density was supplied:
 charge density of overlapping atoms calculated
 number of electron       7.0000000 magnetization 
 keeping initial charge density in first step


--------------------------------------------------------------------------------------------------------


 Maximum index for augmentation-charges          665 (set IRDMAX)


--------------------------------------------------------------------------------------------------------


 First call to EWALD:  gamma=   0.098
 Maximum number of real-space cells 3x 3x 3
 Maximum number of reciprocal cells 3x 3x 3

    FEWALD:  cpu time      0.0010: real time      0.0010


--------------------------------------- Ionic step        1  -------------------------------------------




--------------------------------------- Iteration      1(   1)  ---------------------------------------


    POTLOK:  cpu time      0.2330: real time      0.2347
    SETDIJ:  cpu time      0.0454: real time      0.0456
     EDDAV:  cpu time      0.0494: real time      0.0499
       DOS:  cpu time      0.0005: real time      0.0005
    --------------------------------------------
      LOOP:  cpu time      0.3283: real time      0.3307

 eigenvalue-minimisations  :    16
 total energy-change (2. order) : 0.5196520E+02  (-0.8136411E+02)
 number of electron       7.0000000 magnetization 
 augmentation part        7.0000000 magnetization 

 Free energy of the ion-electron system (eV)
  ---------------------------------------------------
  alpha Z        PSCENC =         0.03561813
  Ewald energy   TEWEN  =       -55.30181893
  -Hartree energ DENC   =      -289.50726267
  -exchange      EXHF   =         0.00000000
  -V(xc)+E(xc)   XCENC  =        19.27852873
  PAW double counting   =       325.27555732     -325.38929183
  entropy T*S    EENTRO =        -0.02822105
  eigenvalues    EBANDS =       -32.12146352
  atomic energy  EATOM  =       409.72355349
  Solvation  Ediel_sol  =         0.00000000
  ---------------------------------------------------
  free energy    TOTEN  =        51.96519967 eV

  energy without entropy =       51.99342071  energy(sigma->0) =       51.97931019


--------------------------------------------------------------------------------------------------------




--------------------------------------- Iteration      1(   2)  ---------------------------------------


     EDDAV:  cpu time      0.0463: real time      0.0471
       DOS:  cpu time      0.0003: real time      0.0003
    --------------------------------------------
      LOOP:  cpu time      0.0466: real time      0.0475

 eigenvalue-minimisations  :    16
 total energy-change (2. order) :-0.9064682E+01  (-0.9064592E+01)
 number of electron       7.0000000 magnetization 
 augmentation part        7.0000000 magnetization 

 Free energy of the ion-electron system (eV)
  ---------------------------------------------------
  alpha Z        PSCENC =         0.03561813
  Ewald energy   TEWEN  =       -55.30181893
  -Hartree energ DENC   =      -289.50726267
  -exchange      EXHF   =         0.00000000
  -V(xc)+E(xc)   XCENC  =        19.27852873
  PAW double counting   =       325.27555732     -325.38929183
  entropy T*S    EENTRO =        -0.02908403
  eigenvalues    EBANDS =       -41.18528212
  atomic energy  EATOM  =       409.72355349
  Solvation  Ediel_sol  =         0.00000000
  ---------------------------------------------------
  free energy    TOTEN  =        42.90051809 eV

  energy without entropy =       42.92960212  energy(sigma->0) =       42.91506010


--------------------------------------------------------------------------------------------------------




--------------------------------------- Iteration      1(   3)  ---------------------------------------


     EDDAV:  cpu time      0.0767: real time      0.0773
       DOS:  cpu time      0.0003: real time      0.0003
    --------------------------------------------
      LOOP:  cpu time      0.0770: real time      0.0776

 eigenvalue-minimisations  :    32
 total energy-change (2. order) :-0.3119215E+02  (-0.3118504E+02)
 number of electron       7.0000000 magnetization 
 augmentation part        7.0000000 magnetization 

 Free energy of the ion-electron system (eV)
  ---------------------------------------------------
  alpha Z        PSCENC =         0.03561813
  Ewald energy   TEWEN  =       -55.30181893
  -Hartree energ DENC   =      -289.50726267
  -exchange      EXHF   =         0.00000000
  -V(xc)+E(xc)   XCENC  =        19.27852873
  PAW double counting   =       325.27555732     -325.38929183
  entropy T*S    EENTRO =        -0.02820948
  eigenvalues    EBANDS =       -72.37830269
  atomic energy  EATOM  =       409.72355349
  Solvation  Ediel_sol  =         0.00000000
  ---------------------------------------------------
  free energy    TOTEN  =        11.70837207 eV

  energy without entropy =       11.73658155  energy(sigma->0) =       11.72247681


--------------------------------------------------------------------------------------------------------




--------------------------------------- Iteration      1(   4)  ---------------------------------------


     EDDAV:  cpu time      0.0458: real time      0.0461
       DOS:  cpu time      0.0003: real time      0.0003
    --------------------------------------------
      LOOP:  cpu time      0.0461: real time      0.0465

 eigenvalue-minimisations  :    16
 total energy-change (2. order) :-0.1142811E+02  (-0.1142715E+02)
 number of electron       7.0000000 magnetization 
 augmentation part        7.0000000 magnetization 

 Free energy of the ion-electron system (eV)
  ---------------------------------------------------
  alpha Z        PSCENC =         0.03561813
  Ewald energy   TEWEN  =       -55.30181893
  -Hartree energ DENC   =      -289.50726267
  -exchange      EXHF   =         0.00000000
  -V(xc)+E(xc)   XCENC  =        19.27852873
  PAW double counting   =       325.27555732     -325.38929183
  entropy T*S    EENTRO =        -0.03380553
  eigenvalues    EBANDS =       -83.80081632
  atomic energy  EATOM  =       409.72355349
  Solvation  Ediel_sol  =         0.00000000
  ---------------------------------------------------
  free energy    TOTEN  =         0.28026239 eV

  energy without entropy =        0.31406792  energy(sigma->0) =        0.29716515


--------------------------------------------------------------------------------------------------------




--------------------------------------- Iteration      1(   5)  ---------------------------------------


     EDDAV:  cpu time      0.0457: real time      0.0461
       DOS:  cpu time      0.0003: real time      0.0003
    CHARGE:  cpu time      0.0217: real time      0.0219
    MIXING:  cpu time      0.0042: real time      0.0043
    --------------------------------------------
      LOOP:  cpu time      0.0720: real time      0.0726

 eigenvalue-minimisations  :    16
 total energy-change (2. order) :-0.3457610E+00  (-0.3271073E+00)
 number of electron       7.0000001 magnetization 
 augmentation part       -0.9601917 magnetization 

 Broyden mixing:
  rms(total) = 0.10177E-01    rms(broyden)= 0.10048E-01
  rms(prec ) = 0.10566E-01
  weight for this iteration     100.00

 Free energy of the ion-electron system (eV)
  ---------------------------------------------------
  alpha Z        PSCENC =         0.03561813
  Ewald energy   TEWEN  =       -55.30181893
  -Hartree energ DENC   =      -289.50726267
  -exchange      EXHF   =         0.00000000
  -V(xc)+E(xc)   XCENC  =        19.27852873
  PAW double counting   =       325.27555732     -325.38929183
  entropy T*S    EENTRO =        -0.05299743
  eigenvalues    EBANDS =       -84.12738540
  atomic energy  EATOM  =       409.72355349
  Solvation  Ediel_sol  =         0.00000000
  ---------------------------------------------------
  free energy    TOTEN  =        -0.06549860 eV

  energy without entropy =       -0.01250116  energy(sigma->0) =       -0.03899988


--------------------------------------------------------------------------------------------------------




--------------------------------------- Iteration      1(   6)  ---------------------------------------


    POTLOK:  cpu time      0.2178: real time      0.2192
    SETDIJ:  cpu time      0.0448: real time      0.0450
     EDDAV:  cpu time      0.0637: real time      0.0642
       DOS:  cpu time      0.0004: real time      0.0003
    CHARGE:  cpu time      0.0210: real time      0.0212
    MIXING:  cpu time      0.0054: real time      0.0055
    --------------------------------------------
      LOOP:  cpu time      0.3532: real time      0.3554

 eigenvalue-minimisations  :    24
 total energy-change (2. order) :-0.5757794E-02  (-0.5841603E-02)
 number of electron       7.0000001 magnetization 
 augmentation part       -0.9608631 magnetization 

 Broyden mixing:
  rms(total) = 0.19150E-01    rms(broyden)= 0.19146E-01
  rms(prec ) = 0.20607E-01
  weight for this iteration     100.00

 eigenvalues of (default mixing * dielectric matrix)
  average eigenvalue GAMMA=   0.3031
  0.3031

 Free energy of the ion-electron system (eV)
  ---------------------------------------------------
  alpha Z        PSCENC =         0.03561813
  Ewald energy   TEWEN  =       -55.30181893
  -Hartree energ DENC   =      -289.38657205
  -exchange      EXHF   =         0.00000000
  -V(xc)+E(xc)   XCENC  =        19.26975056
  PAW double counting   =       323.65615746     -323.76820027
  entropy T*S    EENTRO =        -0.05291777
  eigenvalues    EBANDS =       -84.24682700
  atomic energy  EATOM  =       409.72355349
  Solvation  Ediel_sol  =         0.00000000
  ---------------------------------------------------
  free energy    TOTEN  =        -0.07125639 eV

  energy without entropy =       -0.01833862  energy(sigma->0) =       -0.04479751


--------------------------------------------------------------------------------------------------------




--------------------------------------- Iteration      1(   7)  ---------------------------------------


    POTLOK:  cpu time      0.2223: real time      0.2240
    SETDIJ:  cpu time      0.0446: real time      0.0448
     EDDAV:  cpu time      0.0790: real time      0.0795
       DOS:  cpu time      0.0003: real time      0.0004
    CHARGE:  cpu time      0.0206: real time      0.0207
    MIXING:  cpu time      0.0047: real time      0.0048
    --------------------------------------------
      LOOP:  cpu time      0.3716: real time      0.3742

 eigenvalue-minimisations  :    32
 total energy-change (2. order) : 0.7310274E-04  (-0.1454672E-03)
 number of electron       7.0000001 magnetization 
 augmentation part       -0.9608347 magnetization 

 Broyden mixing:
  rms(total) = 0.85519E-02    rms(broyden)= 0.85515E-02
  rms(prec ) = 0.92019E-02
  weight for this iteration     100.00

 eigenvalues of (default mixing * dielectric matrix)
  average eigenvalue GAMMA=   0.4644
  0.7182  0.2106

 Free energy of the ion-electron system (eV)
  ---------------------------------------------------
  alpha Z        PSCENC =         0.03561813
  Ewald energy   TEWEN  =       -55.30181893
  -Hartree energ DENC   =      -289.40230191
  -exchange      EXHF   =         0.00000000
  -V(xc)+E(xc)   XCENC  =        19.27092587
  PAW double counting   =       323.86333395     -323.97564947
  entropy T*S    EENTRO =        -0.05298647
  eigenvalues    EBANDS =       -84.23185794
  atomic energy  EATOM  =       409.72355349
  Solvation  Ediel_sol  =         0.00000000
  ---------------------------------------------------
  free energy    TOTEN  =        -0.07118329 eV

  energy without entropy =       -0.01819682  energy(sigma->0) =       -0.04469005


--------------------------------------------------------------------------------------------------------




--------------------------------------- Iteration      1(   8)  ---------------------------------------


    POTLOK:  cpu time      0.2186: real time      0.2203
    SETDIJ:  cpu time      0.0446: real time      0.0448
     EDDAV:  cpu time      0.0630: real time      0.0634
       DOS:  cpu time      0.0004: real time      0.0003
    --------------------------------------------
      LOOP:  cpu time      0.3265: real time      0.3289

 eigenvalue-minimisations  :    24
 total energy-change (2. order) : 0.8893386E-05  (-0.9224171E-05)
 number of electron       7.0000001 magnetization 
 augmentation part       -0.9608347 magnetization 

 Free energy of the ion-electron system (eV)
  ---------------------------------------------------
  alpha Z        PSCENC =         0.03561813
  Ewald energy   TEWEN  =       -55.30181893
  -Hartree energ DENC   =      -289.43406227
  -exchange      EXHF   =         0.00000000
  -V(xc)+E(xc)   XCENC  =        19.27312050
  PAW double counting   =       324.18987108     -324.30277741
  entropy T*S    EENTRO =        -0.05300113
  eigenvalues    EBANDS =       -84.20167785
  atomic energy  EATOM  =       409.72355349
  Solvation  Ediel_sol  =         0.00000000
  ---------------------------------------------------
  free energy    TOTEN  =        -0.07117440 eV

  energy without entropy =       -0.01817326  energy(sigma->0) =       -0.04467383


--------------------------------------------------------------------------------------------------------




 average (electrostatic) potential at core
  the test charge radii are     0.9406
  (the norm of the test charge is              1.0000)
       1-101.9779
 
 
 
 E-fermi :  -8.5381     XC(G=0):  -0.1381     alpha+bet : -0.0317

 Fermi energy:        -8.5380716125

 k-point     1 :       0.0000    0.0000    0.0000
  band No.  band energies     occupation 
      1     -20.6702      2.00000
      2      -8.5724      1.66864
      3      -8.5723      1.66652
      4      -8.5721      1.66484
      5      -0.3182      0.00000
      6       0.1158      0.00000
      7       0.3933      0.00000
      8       0.3994      0.00000


--------------------------------------------------------------------------------------------------------


 soft charge-density along one line, spin component           1
         0         1         2         3         4         5         6         7         8         9
 total charge-density along one line
 
 pseudopotential strength for first ion, spin component:           1
 50.816  53.330  -0.000   0.000  -0.000  -0.000   0.000  -0.000
 53.330  55.971  -0.000   0.000  -0.000  -0.000   0.000  -0.000
 -0.000  -0.000   9.461  -0.000  -0.000  11.722  -0.000  -0.000
  0.000   0.000  -0.000   9.461   0.000  -0.000  11.722   0.000
 -0.000  -0.000  -0.000   0.000   9.461  -0.000   0.000  11.722
 -0.000  -0.000  11.722  -0.000  -0.000  14.538  -0.000  -0.000
  0.000   0.000  -0.000  11.722   0.000  -0.000  14.538   0.000
 -0.000  -0.000  -0.000   0.000  11.722  -0.000   0.000  14.538
 total augmentation occupancy for first ion, spin component:           1
  2.034  -0.016  -0.000   0.000   0.000  -0.000   0.000  -0.000
 -0.016   0.000   0.000  -0.000   0.000   0.000  -0.000   0.000
 -0.000   0.000   1.648   0.006   0.010   0.005   0.000  -0.000
  0.000  -0.000   0.006   1.657  -0.006   0.000   0.005   0.000
  0.000   0.000   0.010  -0.006   1.662  -0.000   0.000   0.005
 -0.000   0.000   0.005   0.000  -0.000   0.000   0.000  -0.000
  0.000  -0.000   0.000   0.005   0.000   0.000   0.000   0.000
 -0.000   0.000  -0.000   0.000   0.005  -0.000   0.000   0.000


------------------------ aborting loop because EDIFF is reached ----------------------------------------


    CHARGE:  cpu time      0.0202: real time      0.0204
    FORLOC:  cpu time      0.0036: real time      0.0036
    FORNL :  cpu time      0.0008: real time      0.0008
    STRESS:  cpu time      0.0147: real time      0.0148
    FORCOR:  cpu time      0.2174: real time      0.2189
    FORHAR:  cpu time      0.0583: real time      0.0588
    MIXING:  cpu time      0.0061: real time      0.0062
    OFIELD:  cpu time      0.0000: real time      0.0000

  FORCE on cell =-STRESS in cart. coord.  units (eV):
  Direction    XX          YY          ZZ          XY          YZ          ZX
  --------------------------------------------------------------------------------------
  Alpha Z     0.03562     0.03562     0.03562
  Ewald     -18.12359   -18.43417   -18.74406     0.00000     0.00000     0.00000
  Hartree    96.81479    96.52960    96.21511    -0.01315    -0.00553     0.00820
  E(xc)     -25.21751   -25.21791   -25.21765     0.00039     0.00007    -0.00026
  Local    -229.19056  -228.66517  -228.01071     0.05762     0.02436    -0.03594
  n-local    81.52841    81.54788    81.53958    -0.01234    -0.00518     0.00770
  augment   -19.93035   -19.93383   -19.93236     0.00209     0.00095    -0.00130
  Kinetic   114.12403   114.16562   114.14769    -0.02648    -0.01116     0.01657
  Fock        0.00000     0.00000     0.00000     0.00000     0.00000     0.00000
  -------------------------------------------------------------------------------------
  Total       0.04083     0.02765     0.03323     0.00813     0.00351    -0.00504
  in kB       0.01103     0.00747     0.00898     0.00220     0.00095    -0.00136
  external pressure =        0.01 kB  Pullay stress =        0.00 kB


 VOLUME and BASIS-vectors are now :
 -----------------------------------------------------------------------------
  energy-cutoff  :      520.00
  volume of cell :     5929.56
      direct lattice vectors                 reciprocal lattice vectors
    18.000000000  0.000000000  0.000000000     0.055555556 -0.000000000  0.000000000
     0.000000000 18.100000000  0.000000000     0.000000000  0.055248619  0.000000000
     0.000000000  0.000000000 18.200000000    -0.000000000 -0.000000000  0.054945055

  length of vectors
    18.000000000 18.100000000 18.200000000     0.055555556  0.055248619  0.054945055


 FORCES acting on ions
    electron-ion (+dipol)            ewald-force                    non-local-force                 convergence-correction
 -----------------------------------------------------------------------------------------------
   -.237E-01 0.387E-02 -.473E-02   0.104E-16 0.346E-17 -.969E-17   0.984E-02 0.171E-02 0.181E-03   0.146E-01 -.558E-02 0.506E-02
 -----------------------------------------------------------------------------------------------
   -.237E-01 0.387E-02 -.473E-02   0.104E-16 0.346E-17 -.969E-17   0.984E-02 0.171E-02 0.181E-03   0.146E-01 -.558E-02 0.506E-02
 
 
 POSITION                                       TOTAL-FORCE (eV/Angst)
 -----------------------------------------------------------------------------------
      0.00000      0.00000      0.00000         0.000747      0.000004      0.000504
 -----------------------------------------------------------------------------------
    total drift:                                0.000747      0.000004      0.000504


--------------------------------------------------------------------------------------------------------



  FREE ENERGIE OF THE ION-ELECTRON SYSTEM (eV)
  ---------------------------------------------------
  free  energy   TOTEN  =        -0.07117440 eV

  energy  without entropy=       -0.01817326  energy(sigma->0) =       -0.04467383
 


--------------------------------------------------------------------------------------------------------


    POTLOK:  cpu time      0.2801: real time      0.2821


--------------------------------------------------------------------------------------------------------


     LOOP+:  cpu time      2.2687: real time      2.2873
    4ORBIT:  cpu time      0.0000: real time      0.0000

 total amount of memory used by VASP MPI-rank0    68130. kBytes
=======================================================================

   base      :      30000. kBytes
   nonl-proj :        198. kBytes
   fftplans  :      14937. kBytes
   grid      :      22836. kBytes
   one-center:          1. kBytes
   wavefun   :        158. kBytes
 
  
  
 General timing and accounting informations for this job:
 ========================================================
  
                  Total CPU time used (sec):        4.594
                            User time (sec):        3.958
                          System time (sec):        0.636
                         Elapsed time (sec):        5.161
  
                   Maximum memory used (kb):      455220.
                   Average memory used (kb):          N/A
  
                          Minor page faults:        45111
                          Major page faults:           18
                 Voluntary context switches:          626
