 vasp.6.4.2 20Jul23 (build Aug 07 2024 12:45:50) gamma-only                     
  
 executed on             LinuxIFC date 2026.09.30  12:17:09
 running   64 mpi-ranks, on    1 nodes
 distrk:  each k-point on   64 cores,    1 groups
 distr:  one band on NCORE=  32 cores,    2 groups


--------------------------------------------------------------------------------------------------------


 INCAR:
   ALGO = Normal
   EDIFF = 1e-05
   EFERMI = Midgap
   ENCUT = 520.0
   GGA = Pe
   GGA_COMPAT = False
   IBRION = -1
   ISMEAR = 0
   ISPIN = 1
   ISYM = 0
   LAECHG = False
   LASPH = True
   LCHARG = False
   LMAXMIX = 6
   LMIXTAU = True
   LREAL = False
   LWAVE = False
   NCORE = 32
   NELM = 400
   NSW = 0
   PREC = Accurate
   SIGMA = 0.05
   SYSTEM = O_atom_ispin1

 POTCAR:    PAW_PBE O 08Apr2002                   
 -----------------------------------------------------------------------------
|                                                                             |
|           W    W    AA    RRRRR   N    N  II  N    N   GGGG   !!!           |
|           W    W   A  A   R    R  NN   N  II  NN   N  G    G  !!!           |
|           W    W  A    A  R    R  N N  N  II  N N  N  G       !!!           |
|           W WW W  AAAAAA  RRRRR   N  N N  II  N  N N  G  GGG   !            |
|           WW  WW  A    A  R   R   N   NN  II  N   NN  G    G                |
|           W    W  A    A  R    R  N    N  II  N    N   GGGG   !!!           |
|                                                                             |
|     For optimal performance we recommend to set                             |
|       NCORE = 2 up to number-of-cores-per-socket                            |
|     NCORE specifies how many cores store one orbital (NPAR=cpu/NCORE).      |
|     This setting can greatly improve the performance of VASP for DFT.       |
|     The default, NCORE=1 might be grossly inefficient on modern             |
|     multi-core architectures or massively parallel machines. Do your        |
|     own testing! More info at https://www.vasp.at/wiki/index.php/NCORE      |
|     Unfortunately you need to use the default for GW and RPA                |
|     calculations (for HF NCORE is supported but not extensively tested      |
|     yet).                                                                   |
|                                                                             |
 -----------------------------------------------------------------------------

 POTCAR:    PAW_PBE O 08Apr2002                   
   SHA256 =  818f92134a0a090dccd8ba1447fa70422a3b330e708bb4f08108d8ae51209ddf O/POTCAR              
   COPYR  = (c) Copyright 08Apr2002 Georg Kresse                                                    
   COPYR  = This file is part of the software VASP. Any use, copying, and all other rights are regul
   COPYR  = If you do not have a valid VASP license, you may not use, copy or distribute this file. 
   VRHFIN =O: s2p4                                                                                  
   LEXCH  = PE                                                                                      
   EATOM  =   432.3788 eV,   31.7789 Ry                                                             
                                                                                                    
   TITEL  = PAW_PBE O 08Apr2002                                                                     
   LULTRA =        F    use ultrasoft PP ?                                                          
   IUNSCR =        1    unscreen: 0-lin 1-nonlin 2-no                                               
   RPACOR =    1.200    partial core radius                                                         
   POMASS =   16.000; ZVAL   =    6.000    mass and valenz                                          
   RCORE  =    1.520    outmost cutoff radius                                                       
   RWIGS  =    1.550; RWIGS  =    0.820    wigner-seitz radius (au A)                               
   ENMAX  =  400.000; ENMIN  =  300.000 eV                                                          
   ICORE  =        2    local potential                                                             
   LCOR   =        T    correct aug charges                                                         
   LPAW   =        T    paw PP                                                                      
   EAUG   =  605.392                                                                                
   DEXC   =    0.000                                                                                
   RMAX   =    1.553    core radius for proj-oper                                                   
   RAUG   =    1.300    factor for augmentation sphere                                              
   RDEP   =    1.550    radius for radial grids                                                     
   RDEPT  =    1.329    core radius for aug-charge                                                  
                                                                                                    
   Atomic configuration                                                                             
    4 entries                                                                                       
     n  l   j            E        occ.                                                              
     1  0  0.50      -514.6923   2.0000                                                             
     2  0  0.50       -23.9615   2.0000                                                             
     2  1  0.50        -9.0305   4.0000                                                             
     3  2  1.50        -9.5241   0.0000                                                             
   Description                                                                                      
     l       E           TYP  RCUT    TYP  RCUT                                                     
     0    -23.9615318     23  1.200                                                                 
     0     -9.5240782     23  1.200                                                                 
     1     -9.0304911     23  1.520                                                                 
     1      8.1634956     23  1.520                                                                 
     2     -9.5240782      7  1.500                                                                 
  local pseudopotential read in
  partial core-charges read in
  partial kinetic energy density read in
  kinetic energy density of atom read in
  atomic valenz-charges read in
  non local Contribution for L=           0  read in
    real space projection operators read in
  non local Contribution for L=           0  read in
    real space projection operators read in
  non local Contribution for L=           1  read in
    real space projection operators read in
  non local Contribution for L=           1  read in
    real space projection operators read in
    PAW grid and wavefunctions read in
 
   number of l-projection  operators is LMAX  =           4
   number of lm-projection operators is LMMAX =           8
 
  PAW_PBE O 08Apr2002                   :
 energy of atom  1       EATOM= -432.3788
 kinetic energy error for atom=    0.0208 (will be added to EATOM!!)
 
 
 POSCAR: O1
  positions in direct lattice
  No initial velocities read in
 exchange correlation table for  LEXCH =        8
   RHO(1)=    0.500       N(1)  =     2000
   RHO(2)=  100.500       N(2)  =     4000
 


--------------------------------------------------------------------------------------------------------


 ion  position               nearest neighbor table
   1  0.000  0.000  0.000-
 

IMPORTANT INFORMATION: All symmetrisations will be switched off!
NOSYMM: (Re-)initialisation of all symmetry stuff for point group C_1.


----------------------------------------------------------------------------------------

                                     Primitive cell                                     

  volume of cell :    3442.8000

  direct lattice vectors                    reciprocal lattice vectors
    15.000000000  0.000000000  0.000000000     0.066666667 -0.000000000  0.000000000
     0.000000000 15.100000000  0.000000000     0.000000000  0.066225166  0.000000000
     0.000000000  0.000000000 15.200000000    -0.000000000 -0.000000000  0.065789474

  length of vectors
    15.000000000 15.100000000 15.200000000     0.066666667  0.066225166  0.065789474

  position of ions in fractional coordinates (direct lattice)
     0.000000000  0.000000000  0.000000000

  ion indices of the primitive-cell ions
   primitive index   ion index
                 1           1

----------------------------------------------------------------------------------------

 
 
 KPOINTS: Automatic kpoint scheme                 

Automatic generation of k-mesh.
 Grid dimensions read from file:
 generate k-points for:    1    1    1

 Generating k-lattice:

  Cartesian coordinates                     Fractional coordinates (reciprocal lattice)
     0.066666667 -0.000000000  0.000000000     1.000000000 -0.000000000  0.000000000
     0.000000000  0.066225166  0.000000000     0.000000000  1.000000000  0.000000000
    -0.000000000 -0.000000000  0.065789474     0.000000000 -0.000000000  1.000000000

  Length of vectors
     0.066666667  0.066225166  0.065789474

  Shift w.r.t. Gamma in fractional coordinates (k-lattice)
     0.000000000  0.000000000  0.000000000

 
 Subroutine IBZKPT returns following result:
 ===========================================
 
 Found      1 irreducible k-points:
 
 Following reciprocal coordinates:
            Coordinates               Weight
  0.000000  0.000000  0.000000      1.000000
 
 Following cartesian coordinates:
            Coordinates               Weight
  0.000000  0.000000  0.000000      1.000000
 


--------------------------------------------------------------------------------------------------------




 Dimension of arrays:
   k-points           NKPTS =      1   k-points in BZ     NKDIM =      1   number of bands    NBANDS=      8
   number of dos      NEDOS =    301   number of ions     NIONS =      1
   non local maximal  LDIM  =      4   non local SUM 2l+1 LMDIM =      8
   total plane-waves  NPLWV = ******
   max r-space proj   IRMAX =      1   max aug-charges    IRDMAX=   5871
   dimension x,y,z NGX =   112 NGY =  112 NGZ =  120
   dimension x,y,z NGXF=   224 NGYF=  224 NGZF=  240
   support grid    NGXF=   224 NGYF=  224 NGZF=  240
   ions per type =               1
   NGX,Y,Z   is equivalent  to a cutoff of  12.41, 12.33, 13.12 a.u.
   NGXF,Y,Z  is equivalent  to a cutoff of  24.83, 24.66, 26.25 a.u.

 SYSTEM =  O_atom_ispin1                           
 POSCAR =  O1                                      

 Startparameter for this run:
   NWRITE =      2    write-flag & timer
   PREC   = accura    normal or accurate (medium, high low for compatibility)
   ISTART =      0    job   : 0-new  1-cont  2-samecut
   ICHARG =      2    charge: 1-file 2-atom 10-const
   ISPIN  =      1    spin polarized calculation?
   LNONCOLLINEAR =      F non collinear calculations
   LSORBIT =      F    spin-orbit coupling
   INIWAV =      1    electr: 0-lowe 1-rand  2-diag
   LASPH  =      T    aspherical Exc in radial PAW
 Electronic Relaxation 1
   ENCUT  =  520.0 eV  38.22 Ry    6.18 a.u.  27.89 28.08 28.26*2*pi/ulx,y,z
   ENINI  =  520.0     initial cutoff
   ENAUG  =  605.4 eV  augmentation charge cutoff
   NELM   =    400;   NELMIN=  2; NELMDL= -5     # of ELM steps 
   EDIFF  = 0.1E-04   stopping-criterion for ELM
   LREAL  =      F    real-space projection
   NLSPLINE    = F    spline interpolate recip. space projectors
   LCOMPAT=      F    compatible to vasp.4.4
   GGA_COMPAT  = F    GGA compatible to vasp.4.4-vasp.4.6
   LMAXPAW     = -100 max onsite density
   LMAXMIX     =    6 max onsite mixed and CHGCAR
   VOSKOWN=      0    Vosko Wilk Nusair interpolation
   ROPT   =    0.00000
 Ionic relaxation
   EDIFFG = 0.1E-03   stopping-criterion for IOM
   NSW    =      0    number of steps for IOM
   NBLOCK =      1;   KBLOCK =      1    inner block; outer block 
   IBRION =     -1    ionic relax: 0-MD 1-quasi-New 2-CG
   NFREE  =      0    steps in history (QN), initial steepest desc. (CG)
   ISIF   =      2    stress and relaxation
   IWAVPR =     10    prediction:  0-non 1-charg 2-wave 3-comb
   ISYM   =      0    0-nonsym 1-usesym 2-fastsym
   LCORR  =      T    Harris-Foulkes like correction to forces

   POTIM  = 0.5000    time-step for ionic-motion
   TEIN   =    0.0    initial temperature
   TEBEG  =    0.0;   TEEND  =   0.0 temperature during run
   SMASS  =  -3.00    Nose mass-parameter (am)
   estimated Nose-frequenzy (Omega)   =  0.10E-29 period in steps = 0.13E+47 mass=  -0.514E-26a.u.
   SCALEE = 1.0000    scale energy and forces
   NPACO  =    256;   APACO  = 10.0  distance and # of slots for P.C.
   PSTRESS=    0.0 pullay stress

  Mass of Ions in am
   POMASS =  16.00
  Ionic Valenz
   ZVAL   =   6.00
  Atomic Wigner-Seitz radii
   RWIGS  =  -1.00
  virtual crystal weights 
   VCA    =   1.00
   NELECT =       6.0000    total number of electrons
   NUPDOWN=      -1.0000    fix difference up-down

 DOS related values:
   EMIN   =  10.00;   EMAX   =-10.00  energy-range for DOS
   EFERMI =   0.00;   METHOD = MIDGAP      
   ISMEAR =     0;   SIGMA  =   0.05  broadening in eV -4-tet -1-fermi 0-gaus

 Electronic relaxation 2 (details)
   IALGO  =     38    algorithm
   LDIAG  =      T    sub-space diagonalisation (order eigenvalues)
   LSUBROT=      F    optimize rotation matrix (better conditioning)
   TURBO    =      0    0=normal 1=particle mesh
   IRESTART =      0    0=no restart 2=restart with 2 vectors
   NREBOOT  =      0    no. of reboots
   NMIN     =      0    reboot dimension
   EREF     =   0.00    reference energy to select bands
   IMIX   =      4    mixing-type and parameters
     AMIX     =   0.40;   BMIX     =  1.00
     AMIX_MAG =   1.60;   BMIX_MAG =  1.00
     AMIN     =   0.10
     WC   =   100.;   INIMIX=   1;  MIXPRE=   1;  MAXMIX= -45

 Intra band minimization:
   WEIMIN = 0.0000     energy-eigenvalue tresh-hold
   EBREAK =  0.31E-06  absolut break condition
   DEPER  =   0.30     relativ break condition  

   TIME   =   0.40     timestep for ELM

  volume/ion in A,a.u.               =    3442.80     23233.16
  Fermi-wavevector in a.u.,A,eV,Ry     =   0.197010  0.372295  0.528081  0.038813
  Thomas-Fermi vector in A             =   0.946450
 
 Write flags
   LWAVE        =      F    write WAVECAR
   LDOWNSAMPLE  =      F    k-point downsampling of WAVECAR
   LCHARG       =      F    write CHGCAR
   LVTOT        =      F    write LOCPOT, total local potential
   LVHAR        =      F    write LOCPOT, Hartree potential only
   LELF         =      F    write electronic localiz. function (ELF)
   LORBIT       =      0    0 simple, 1 ext, 2 COOP (PROOUT), +10 PAW based schemes


 Dipole corrections
   LMONO  =      F    monopole corrections only (constant potential shift)
   LDIPOL =      F    correct potential (dipole corrections)
   IDIPOL =      0    1-x, 2-y, 3-z, 4-all directions 
   EPSILON=  1.0000000 bulk dielectric constant

 Exchange correlation treatment:
   GGA     =    PE    GGA type
   LEXCH   =     8    internal setting for exchange type
   LIBXC   =     F    Libxc                    
   VOSKOWN =     0    Vosko Wilk Nusair interpolation
   LHFCALC =     F    Hartree Fock is set to
   LHFONE  =     F    Hartree Fock one center treatment
   AEXX    =    0.0000 exact exchange contribution

 Linear response parameters
   LEPSILON=     F    determine dielectric tensor
   LRPA    =     F    only Hartree local field effects (RPA)
   LNABLA  =     F    use nabla operator in PAW spheres
   LVEL    =     F    velocity operator in full k-point grid
   CSHIFT  =0.1000    complex shift for real part using Kramers Kronig
   OMEGAMAX=  -1.0    maximum frequency
   DEG_THRESHOLD= 0.2000000E-02 threshold for treating states as degnerate
   RTIME   =   -0.100 relaxation time in fs
  (WPLASMAI=    0.000 imaginary part of plasma frequency in eV, 0.658/RTIME)
   DFIELD  = 0.0000000 0.0000000 0.0000000 field for delta impulse in time
 
  Optional k-point grid parameters
   LKPOINTS_OPT  =     F    use optional k-point grid
   KPOINTS_OPT_MODE=     1    mode for optional k-point grid
 
 Orbital magnetization related:
   ORBITALMAG=     F  switch on orbital magnetization
   LCHIMAG   =     F  perturbation theory with respect to B field
   DQ        =  0.001000  dq finite difference perturbation B field
   LLRAUG    =     F  two centre corrections for induced B field
   LBONE     =     F  B-component reconstruction in AE one-centre
   LVGVCALC  =     T  calculate vGv susceptibility
   LVGVAPPL  =     F  apply vGv susceptibility instead of pGv for G=0

 Random number generation:
   RANDOM_GENERATOR = DEFAULT
   PCG_SEED         = not used


--------------------------------------------------------------------------------------------------------


 Static calculation
 charge density and potential will be updated during run
 non-spin polarized calculation
 Variant of blocked Davidson
 Davidson routine will perform the subspace rotation
 perform sub-space diagonalisation
    after iterative eigenvector-optimisation
 modified Broyden-mixing scheme, WC =      100.0
 initial mixing is a Kerker type mixing with AMIX =  0.4000 and BMIX =      1.0000
 Hartree-type preconditioning will be used
 using additional bands            5
 reciprocal scheme for non local part
 use partial core corrections
 calculate Harris-corrections to forces 
   (improved forces if not selfconsistent)
 use gradient corrections 
 use of overlap-Matrix (Vanderbilt PP)
 Gauss-broadening in eV      SIGMA  =   0.05


--------------------------------------------------------------------------------------------------------


  energy-cutoff  :      520.00
  volume of cell :     3442.80
      direct lattice vectors                 reciprocal lattice vectors
    15.000000000  0.000000000  0.000000000     0.066666667 -0.000000000  0.000000000
     0.000000000 15.100000000  0.000000000     0.000000000  0.066225166  0.000000000
     0.000000000  0.000000000 15.200000000    -0.000000000 -0.000000000  0.065789474

  length of vectors
    15.000000000 15.100000000 15.200000000     0.066666667  0.066225166  0.065789474


 
 k-points in units of 2pi/SCALE and weight: Automatic kpoint scheme                 
   0.00000000  0.00000000  0.00000000       1.000
 
 k-points in reciprocal lattice and weights: Automatic kpoint scheme                 
   0.00000000  0.00000000  0.00000000       1.000
 
 position of ions in fractional coordinates (direct lattice) 
   0.00000000  0.00000000  0.00000000
 
 position of ions in cartesian coordinates  (Angst):
   0.00000000  0.00000000  0.00000000
 


--------------------------------------------------------------------------------------------------------


 use parallel FFT for orbitals z direction half grid
 k-point   1 :   0.0000 0.0000 0.0000  plane waves:   46338

 maximum and minimum number of plane-waves per node :      1457     1434

 maximum number of plane-waves:     46338
 maximum index in each direction: 
   IXMAX=   27   IYMAX=   28   IZMAX=   28
   IXMIN=  -27   IYMIN=  -28   IZMIN=    0


 parallel 3D FFT for wavefunctions:
    minimum data exchange during FFTs selected (reduces bandwidth)
 parallel 3D FFT for charge:
    minimum data exchange during FFTs selected (reduces bandwidth)


 total amount of memory used by VASP MPI-rank0    50902. kBytes
=======================================================================

   base      :      30000. kBytes
   nonl-proj :        116. kBytes
   fftplans  :       8156. kBytes
   grid      :      12536. kBytes
   one-center:          1. kBytes
   wavefun   :         93. kBytes
 
     INWAV:  cpu time      0.0000: real time      0.0003
 Broyden mixing: mesh for mixing (old mesh)
   NGX = 55   NGY = 57   NGZ = 57
  (NGX  =224   NGY  =224   NGZ  =240)
  gives a total of 178695 points

 initial charge density was supplied:
 charge density of overlapping atoms calculated
 number of electron       6.0000000 magnetization 
 keeping initial charge density in first step


--------------------------------------------------------------------------------------------------------


 Maximum index for augmentation-charges          387 (set IRDMAX)


--------------------------------------------------------------------------------------------------------


 First call to EWALD:  gamma=   0.117
 Maximum number of real-space cells 3x 3x 3
 Maximum number of reciprocal cells 3x 3x 3

    FEWALD:  cpu time      0.0010: real time      0.0010


--------------------------------------- Ionic step        1  -------------------------------------------




--------------------------------------- Iteration      1(   1)  ---------------------------------------


    POTLOK:  cpu time      0.1317: real time      0.1327
    SETDIJ:  cpu time      0.0452: real time      0.0456
     EDDAV:  cpu time      0.0221: real time      0.0223
       DOS:  cpu time      0.0003: real time      0.0003
    --------------------------------------------
      LOOP:  cpu time      0.1993: real time      0.2010

 eigenvalue-minimisations  :    16
 total energy-change (2. order) : 0.4842688E+02  (-0.8163640E+02)
 number of electron       6.0000000 magnetization 
 augmentation part        6.0000000 magnetization 

 Free energy of the ion-electron system (eV)
  ---------------------------------------------------
  alpha Z        PSCENC =         0.04036089
  Ewald energy   TEWEN  =       -48.70163197
  -Hartree energ DENC   =      -324.08328877
  -exchange      EXHF   =         0.00000000
  -V(xc)+E(xc)   XCENC  =        26.06853214
  PAW double counting   =       346.54947689     -348.34814756
  entropy T*S    EENTRO =        -0.00000069
  eigenvalues    EBANDS =       -35.45641157
  atomic energy  EATOM  =       432.35798652
  Solvation  Ediel_sol  =         0.00000000
  ---------------------------------------------------
  free energy    TOTEN  =        48.42687588 eV

  energy without entropy =       48.42687658  energy(sigma->0) =       48.42687623


--------------------------------------------------------------------------------------------------------




--------------------------------------- Iteration      1(   2)  ---------------------------------------


     EDDAV:  cpu time      0.0202: real time      0.0211
       DOS:  cpu time      0.0005: real time      0.0005
    --------------------------------------------
      LOOP:  cpu time      0.0207: real time      0.0216

 eigenvalue-minimisations  :    16
 total energy-change (2. order) :-0.1132046E+02  (-0.1132041E+02)
 number of electron       6.0000000 magnetization 
 augmentation part        6.0000000 magnetization 

 Free energy of the ion-electron system (eV)
  ---------------------------------------------------
  alpha Z        PSCENC =         0.04036089
  Ewald energy   TEWEN  =       -48.70163197
  -Hartree energ DENC   =      -324.08328877
  -exchange      EXHF   =         0.00000000
  -V(xc)+E(xc)   XCENC  =        26.06853214
  PAW double counting   =       346.54947689     -348.34814756
  entropy T*S    EENTRO =        -0.00053960
  eigenvalues    EBANDS =       -46.77632774
  atomic energy  EATOM  =       432.35798652
  Solvation  Ediel_sol  =         0.00000000
  ---------------------------------------------------
  free energy    TOTEN  =        37.10642081 eV

  energy without entropy =       37.10696040  energy(sigma->0) =       37.10669060


--------------------------------------------------------------------------------------------------------




--------------------------------------- Iteration      1(   3)  ---------------------------------------


     EDDAV:  cpu time      0.0312: real time      0.0315
       DOS:  cpu time      0.0002: real time      0.0002
    --------------------------------------------
      LOOP:  cpu time      0.0314: real time      0.0317

 eigenvalue-minimisations  :    32
 total energy-change (2. order) :-0.2134458E+02  (-0.2134348E+02)
 number of electron       6.0000000 magnetization 
 augmentation part        6.0000000 magnetization 

 Free energy of the ion-electron system (eV)
  ---------------------------------------------------
  alpha Z        PSCENC =         0.04036089
  Ewald energy   TEWEN  =       -48.70163197
  -Hartree energ DENC   =      -324.08328877
  -exchange      EXHF   =         0.00000000
  -V(xc)+E(xc)   XCENC  =        26.06853214
  PAW double counting   =       346.54947689     -348.34814756
  entropy T*S    EENTRO =        -0.00000000
  eigenvalues    EBANDS =       -68.12144408
  atomic energy  EATOM  =       432.35798652
  Solvation  Ediel_sol  =         0.00000000
  ---------------------------------------------------
  free energy    TOTEN  =        15.76184406 eV

  energy without entropy =       15.76184406  energy(sigma->0) =       15.76184406


--------------------------------------------------------------------------------------------------------




--------------------------------------- Iteration      1(   4)  ---------------------------------------


     EDDAV:  cpu time      0.0180: real time      0.0182
       DOS:  cpu time      0.0003: real time      0.0003
    --------------------------------------------
      LOOP:  cpu time      0.0184: real time      0.0185

 eigenvalue-minimisations  :    16
 total energy-change (2. order) :-0.1505898E+02  (-0.1504802E+02)
 number of electron       6.0000000 magnetization 
 augmentation part        6.0000000 magnetization 

 Free energy of the ion-electron system (eV)
  ---------------------------------------------------
  alpha Z        PSCENC =         0.04036089
  Ewald energy   TEWEN  =       -48.70163197
  -Hartree energ DENC   =      -324.08328877
  -exchange      EXHF   =         0.00000000
  -V(xc)+E(xc)   XCENC  =        26.06853214
  PAW double counting   =       346.54947689     -348.34814756
  entropy T*S    EENTRO =        -0.03433467
  eigenvalues    EBANDS =       -83.14608557
  atomic energy  EATOM  =       432.35798652
  Solvation  Ediel_sol  =         0.00000000
  ---------------------------------------------------
  free energy    TOTEN  =         0.70286790 eV

  energy without entropy =        0.73720258  energy(sigma->0) =        0.72003524


--------------------------------------------------------------------------------------------------------




--------------------------------------- Iteration      1(   5)  ---------------------------------------


     EDDAV:  cpu time      0.0180: real time      0.0182
       DOS:  cpu time      0.0004: real time      0.0004
    CHARGE:  cpu time      0.0112: real time      0.0113
    MIXING:  cpu time      0.0032: real time      0.0033
    --------------------------------------------
      LOOP:  cpu time      0.0328: real time      0.0331

 eigenvalue-minimisations  :    16
 total energy-change (2. order) :-0.7832816E+00  (-0.7419718E+00)
 number of electron       5.9999995 magnetization 
 augmentation part        0.5093641 magnetization 

 Broyden mixing:
  rms(total) = 0.17888E-01    rms(broyden)= 0.17612E-01
  rms(prec ) = 0.18869E-01
  weight for this iteration     100.00

 Free energy of the ion-electron system (eV)
  ---------------------------------------------------
  alpha Z        PSCENC =         0.04036089
  Ewald energy   TEWEN  =       -48.70163197
  -Hartree energ DENC   =      -324.08328877
  -exchange      EXHF   =         0.00000000
  -V(xc)+E(xc)   XCENC  =        26.06853214
  PAW double counting   =       346.54947689     -348.34814756
  entropy T*S    EENTRO =        -0.07711556
  eigenvalues    EBANDS =       -83.88658628
  atomic energy  EATOM  =       432.35798652
  Solvation  Ediel_sol  =         0.00000000
  ---------------------------------------------------
  free energy    TOTEN  =        -0.08041369 eV

  energy without entropy =       -0.00329813  energy(sigma->0) =       -0.04185591


--------------------------------------------------------------------------------------------------------




--------------------------------------- Iteration      1(   6)  ---------------------------------------


    POTLOK:  cpu time      0.1201: real time      0.1211
    SETDIJ:  cpu time      0.0456: real time      0.0460
     EDDAV:  cpu time      0.0203: real time      0.0205
       DOS:  cpu time      0.0004: real time      0.0004
    CHARGE:  cpu time      0.0120: real time      0.0121
    MIXING:  cpu time      0.0023: real time      0.0023
    --------------------------------------------
      LOOP:  cpu time      0.2006: real time      0.2024

 eigenvalue-minimisations  :    16
 total energy-change (2. order) :-0.9954777E-02  (-0.9852583E-02)
 number of electron       5.9999996 magnetization 
 augmentation part        0.5117786 magnetization 

 Broyden mixing:
  rms(total) = 0.11480E+00    rms(broyden)= 0.11450E+00
  rms(prec ) = 0.12015E+00
  weight for this iteration     100.00

 eigenvalues of (default mixing * dielectric matrix)
  average eigenvalue GAMMA=   0.1224
  0.1224

 Free energy of the ion-electron system (eV)
  ---------------------------------------------------
  alpha Z        PSCENC =         0.04036089
  Ewald energy   TEWEN  =       -48.70163197
  -Hartree energ DENC   =      -323.85819755
  -exchange      EXHF   =         0.00000000
  -V(xc)+E(xc)   XCENC  =        26.05357083
  PAW double counting   =       346.38806149     -348.18662512
  entropy T*S    EENTRO =        -0.07626976
  eigenvalues    EBANDS =       -84.10762380
  atomic energy  EATOM  =       432.35798652
  Solvation  Ediel_sol  =         0.00000000
  ---------------------------------------------------
  free energy    TOTEN  =        -0.09036847 eV

  energy without entropy =       -0.01409871  energy(sigma->0) =       -0.05223359


--------------------------------------------------------------------------------------------------------




--------------------------------------- Iteration      1(   7)  ---------------------------------------


    POTLOK:  cpu time      0.1212: real time      0.1221
    SETDIJ:  cpu time      0.0450: real time      0.0452
     EDDAV:  cpu time      0.0186: real time      0.0188
       DOS:  cpu time      0.0004: real time      0.0004
    CHARGE:  cpu time      0.0111: real time      0.0112
    MIXING:  cpu time      0.0026: real time      0.0026
    --------------------------------------------
      LOOP:  cpu time      0.1988: real time      0.2003

 eigenvalue-minimisations  :    16
 total energy-change (2. order) : 0.3784713E-02  (-0.3170740E-03)
 number of electron       5.9999996 magnetization 
 augmentation part        0.5125915 magnetization 

 Broyden mixing:
  rms(total) = 0.12334E-01    rms(broyden)= 0.11169E-01
  rms(prec ) = 0.11941E-01
  weight for this iteration     100.00

 eigenvalues of (default mixing * dielectric matrix)
  average eigenvalue GAMMA=   0.3002
  0.4642  0.1362

 Free energy of the ion-electron system (eV)
  ---------------------------------------------------
  alpha Z        PSCENC =         0.04036089
  Ewald energy   TEWEN  =       -48.70163197
  -Hartree energ DENC   =      -323.87078203
  -exchange      EXHF   =         0.00000000
  -V(xc)+E(xc)   XCENC  =        26.05691173
  PAW double counting   =       346.43128170     -348.23028190
  entropy T*S    EENTRO =        -0.07712645
  eigenvalues    EBANDS =       -84.09330224
  atomic energy  EATOM  =       432.35798652
  Solvation  Ediel_sol  =         0.00000000
  ---------------------------------------------------
  free energy    TOTEN  =        -0.08658376 eV

  energy without entropy =       -0.00945731  energy(sigma->0) =       -0.04802053


--------------------------------------------------------------------------------------------------------




--------------------------------------- Iteration      1(   8)  ---------------------------------------


    POTLOK:  cpu time      0.1211: real time      0.1221
    SETDIJ:  cpu time      0.0461: real time      0.0464
     EDDAV:  cpu time      0.0307: real time      0.0309
       DOS:  cpu time      0.0004: real time      0.0004
    CHARGE:  cpu time      0.0114: real time      0.0115
    MIXING:  cpu time      0.0022: real time      0.0022
    --------------------------------------------
      LOOP:  cpu time      0.2119: real time      0.2134

 eigenvalue-minimisations  :    32
 total energy-change (2. order) :-0.2824686E-02  (-0.3744397E-04)
 number of electron       5.9999995 magnetization 
 augmentation part        0.5122382 magnetization 

 Broyden mixing:
  rms(total) = 0.11717E-01    rms(broyden)= 0.11645E-01
  rms(prec ) = 0.12293E-01
  weight for this iteration     100.00

 eigenvalues of (default mixing * dielectric matrix)
  average eigenvalue GAMMA=   0.2596
  0.4102  0.1282  0.2405

 Free energy of the ion-electron system (eV)
  ---------------------------------------------------
  alpha Z        PSCENC =         0.04036089
  Ewald energy   TEWEN  =       -48.70163197
  -Hartree energ DENC   =      -323.94714061
  -exchange      EXHF   =         0.00000000
  -V(xc)+E(xc)   XCENC  =        26.05998492
  PAW double counting   =       346.65093921     -348.45247873
  entropy T*S    EENTRO =        -0.07712362
  eigenvalues    EBANDS =       -84.02030505
  atomic energy  EATOM  =       432.35798652
  Solvation  Ediel_sol  =         0.00000000
  ---------------------------------------------------
  free energy    TOTEN  =        -0.08940844 eV

  energy without entropy =       -0.01228482  energy(sigma->0) =       -0.05084663


--------------------------------------------------------------------------------------------------------




--------------------------------------- Iteration      1(   9)  ---------------------------------------


    POTLOK:  cpu time      0.1298: real time      0.1311
    SETDIJ:  cpu time      0.0454: real time      0.0456
     EDDAV:  cpu time      0.0251: real time      0.0253
       DOS:  cpu time      0.0004: real time      0.0004
    CHARGE:  cpu time      0.0120: real time      0.0121
    MIXING:  cpu time      0.0023: real time      0.0023
    --------------------------------------------
      LOOP:  cpu time      0.2150: real time      0.2168

 eigenvalue-minimisations  :    24
 total energy-change (2. order) :-0.2138476E-03  (-0.7136069E-05)
 number of electron       5.9999996 magnetization 
 augmentation part        0.5121785 magnetization 

 Broyden mixing:
  rms(total) = 0.90815E-02    rms(broyden)= 0.90513E-02
  rms(prec ) = 0.95669E-02
  weight for this iteration     100.00

 eigenvalues of (default mixing * dielectric matrix)
  average eigenvalue GAMMA=   0.6558
  1.4951  0.8642  0.1319  0.1319

 Free energy of the ion-electron system (eV)
  ---------------------------------------------------
  alpha Z        PSCENC =         0.04036089
  Ewald energy   TEWEN  =       -48.70163197
  -Hartree energ DENC   =      -323.96166827
  -exchange      EXHF   =         0.00000000
  -V(xc)+E(xc)   XCENC  =        26.06076867
  PAW double counting   =       346.70202335     -348.50410080
  entropy T*S    EENTRO =        -0.07712685
  eigenvalues    EBANDS =       -84.00623382
  atomic energy  EATOM  =       432.35798652
  Solvation  Ediel_sol  =         0.00000000
  ---------------------------------------------------
  free energy    TOTEN  =        -0.08962229 eV

  energy without entropy =       -0.01249544  energy(sigma->0) =       -0.05105886


--------------------------------------------------------------------------------------------------------




--------------------------------------- Iteration      1(  10)  ---------------------------------------


    POTLOK:  cpu time      0.1196: real time      0.1206
    SETDIJ:  cpu time      0.0450: real time      0.0452
     EDDAV:  cpu time      0.0245: real time      0.0247
       DOS:  cpu time      0.0003: real time      0.0003
    CHARGE:  cpu time      0.0121: real time      0.0122
    MIXING:  cpu time      0.0023: real time      0.0024
    --------------------------------------------
      LOOP:  cpu time      0.2038: real time      0.2053

 eigenvalue-minimisations  :    24
 total energy-change (2. order) :-0.1568129E-03  (-0.3008124E-04)
 number of electron       5.9999995 magnetization 
 augmentation part        0.5117135 magnetization 

 Broyden mixing:
  rms(total) = 0.79093E-02    rms(broyden)= 0.78144E-02
  rms(prec ) = 0.81972E-02
  weight for this iteration     100.00

 eigenvalues of (default mixing * dielectric matrix)
  average eigenvalue GAMMA=   0.6173
  1.8740  0.7903  0.1615  0.1304  0.1304

 Free energy of the ion-electron system (eV)
  ---------------------------------------------------
  alpha Z        PSCENC =         0.04036089
  Ewald energy   TEWEN  =       -48.70163197
  -Hartree energ DENC   =      -324.07096822
  -exchange      EXHF   =         0.00000000
  -V(xc)+E(xc)   XCENC  =        26.06813283
  PAW double counting   =       347.13366541     -348.94007853
  entropy T*S    EENTRO =        -0.07712723
  eigenvalues    EBANDS =       -83.90011879
  atomic energy  EATOM  =       432.35798652
  Solvation  Ediel_sol  =         0.00000000
  ---------------------------------------------------
  free energy    TOTEN  =        -0.08977910 eV

  energy without entropy =       -0.01265188  energy(sigma->0) =       -0.05121549


--------------------------------------------------------------------------------------------------------




--------------------------------------- Iteration      1(  11)  ---------------------------------------


    POTLOK:  cpu time      0.1240: real time      0.1250
    SETDIJ:  cpu time      0.0460: real time      0.0463
     EDDAV:  cpu time      0.0316: real time      0.0319
       DOS:  cpu time      0.0004: real time      0.0004
    --------------------------------------------
      LOOP:  cpu time      0.2020: real time      0.2036

 eigenvalue-minimisations  :    32
 total energy-change (2. order) :-0.9978134E-05  (-0.5431679E-05)
 number of electron       5.9999995 magnetization 
 augmentation part        0.5117135 magnetization 

 Free energy of the ion-electron system (eV)
  ---------------------------------------------------
  alpha Z        PSCENC =         0.04036089
  Ewald energy   TEWEN  =       -48.70163197
  -Hartree energ DENC   =      -324.08684603
  -exchange      EXHF   =         0.00000000
  -V(xc)+E(xc)   XCENC  =        26.06920313
  PAW double counting   =       347.20940415     -349.01652455
  entropy T*S    EENTRO =        -0.07713032
  eigenvalues    EBANDS =       -83.88461089
  atomic energy  EATOM  =       432.35798652
  Solvation  Ediel_sol  =         0.00000000
  ---------------------------------------------------
  free energy    TOTEN  =        -0.08978908 eV

  energy without entropy =       -0.01265876  energy(sigma->0) =       -0.05122392


--------------------------------------------------------------------------------------------------------




 average (electrostatic) potential at core
  the test charge radii are     0.7215
  (the norm of the test charge is              1.0000)
       1 -83.5557
 
 
 
 E-fermi :  -8.9873     XC(G=0):  -0.1514     alpha+bet : -0.0218

 Fermi energy:        -8.9873006753

 k-point     1 :       0.0000    0.0000    0.0000
  band No.  band energies     occupation 
      1     -23.9372      2.00000
      2      -9.0027      1.33737
      3      -9.0025      1.33354
      4      -9.0023      1.32909
      5      -0.2301      0.00000
      6       0.2736      0.00000
      7       0.5584      0.00000
      8       0.5680      0.00000


--------------------------------------------------------------------------------------------------------


 soft charge-density along one line, spin component           1
         0         1         2         3         4         5         6         7         8         9
 total charge-density along one line
 
 pseudopotential strength for first ion, spin component:           1
 14.292 -17.559   0.000  -0.000   0.000  -0.000   0.000  -0.000
-17.559  21.607  -0.000   0.000  -0.000  -0.000  -0.000   0.000
  0.000  -0.000 -11.136   0.000  -0.000  13.916  -0.000   0.000
 -0.000   0.000   0.000 -11.136  -0.000  -0.000  13.916   0.000
  0.000  -0.000  -0.000  -0.000 -11.136   0.000   0.000  13.916
 -0.000  -0.000  13.916  -0.000   0.000 -17.340   0.000  -0.000
  0.000  -0.000  -0.000  13.916   0.000   0.000 -17.340  -0.000
 -0.000   0.000   0.000   0.000  13.916  -0.000  -0.000 -17.340
 total augmentation occupancy for first ion, spin component:           1
  2.043   0.017   0.000   0.000   0.000   0.000  -0.000   0.000
  0.017   0.000   0.000   0.000   0.000   0.000  -0.000   0.000
  0.000   0.000   1.337  -0.000  -0.001  -0.002  -0.000   0.000
  0.000   0.000  -0.000   1.319  -0.001  -0.000  -0.002   0.000
  0.000   0.000  -0.001  -0.001   1.327   0.000   0.000  -0.002
  0.000   0.000  -0.002  -0.000   0.000   0.000   0.000  -0.000
 -0.000  -0.000  -0.000  -0.002   0.000   0.000   0.000  -0.000
  0.000   0.000   0.000   0.000  -0.002  -0.000  -0.000   0.000


------------------------ aborting loop because EDIFF is reached ----------------------------------------


    CHARGE:  cpu time      0.0114: real time      0.0115
    FORLOC:  cpu time      0.0021: real time      0.0021
    FORNL :  cpu time      0.0005: real time      0.0005
    STRESS:  cpu time      0.0077: real time      0.0078
    FORCOR:  cpu time      0.1344: real time      0.1355
    FORHAR:  cpu time      0.0313: real time      0.0316
    MIXING:  cpu time      0.0023: real time      0.0023
    OFIELD:  cpu time      0.0000: real time      0.0000

  FORCE on cell =-STRESS in cart. coord.  units (eV):
  Direction    XX          YY          ZZ          XY          YZ          ZX
  --------------------------------------------------------------------------------------
  Alpha Z     0.04036     0.04036     0.04036
  Ewald     -15.90623   -16.23417   -16.56123     0.00000     0.00000     0.00000
  Hartree   108.33638   108.01196   107.70908     0.01032    -0.04412     0.03121
  E(xc)     -27.96236   -27.96235   -27.96232     0.00001     0.00003    -0.00002
  Local    -176.19362  -175.54136  -174.95345    -0.03100     0.13254    -0.09377
  n-local   -20.23563   -20.23579   -20.24732    -0.00582     0.02484    -0.01758
  augment     5.58565     5.58602     5.59042     0.00220    -0.00942     0.00665
  Kinetic   126.29723   126.29722   126.33853     0.02023    -0.08640     0.06114
  Fock        0.00000     0.00000     0.00000     0.00000     0.00000     0.00000
  -------------------------------------------------------------------------------------
  Total      -0.03823    -0.03810    -0.04592    -0.00407     0.01748    -0.01236
  in kB      -0.01779    -0.01773    -0.02137    -0.00189     0.00813    -0.00575
  external pressure =       -0.02 kB  Pullay stress =        0.00 kB


 VOLUME and BASIS-vectors are now :
 -----------------------------------------------------------------------------
  energy-cutoff  :      520.00
  volume of cell :     3442.80
      direct lattice vectors                 reciprocal lattice vectors
    15.000000000  0.000000000  0.000000000     0.066666667 -0.000000000  0.000000000
     0.000000000 15.100000000  0.000000000     0.000000000  0.066225166  0.000000000
     0.000000000  0.000000000 15.200000000    -0.000000000 -0.000000000  0.065789474

  length of vectors
    15.000000000 15.100000000 15.200000000     0.066666667  0.066225166  0.065789474


 FORCES acting on ions
    electron-ion (+dipol)            ewald-force                    non-local-force                 convergence-correction
 -----------------------------------------------------------------------------------------------
   -.128E-02 0.812E-04 0.834E-04   -.313E-16 0.437E-17 0.134E-16   -.173E-03 0.212E-03 0.292E-04   0.164E-02 -.324E-03 -.131E-03
 -----------------------------------------------------------------------------------------------
   -.128E-02 0.812E-04 0.834E-04   -.313E-16 0.437E-17 0.134E-16   -.173E-03 0.212E-03 0.292E-04   0.164E-02 -.324E-03 -.131E-03
 
 
 POSITION                                       TOTAL-FORCE (eV/Angst)
 -----------------------------------------------------------------------------------
      0.00000      0.00000      0.00000         0.000190     -0.000031     -0.000018
 -----------------------------------------------------------------------------------
    total drift:                                0.000190     -0.000031     -0.000018


--------------------------------------------------------------------------------------------------------



  FREE ENERGIE OF THE ION-ELECTRON SYSTEM (eV)
  ---------------------------------------------------
  free  energy   TOTEN  =        -0.08978908 eV

  energy  without entropy=       -0.01265876  energy(sigma->0) =       -0.05122392
 


--------------------------------------------------------------------------------------------------------


    POTLOK:  cpu time      0.1669: real time      0.1680


--------------------------------------------------------------------------------------------------------


     LOOP+:  cpu time      1.9379: real time      1.9563
    4ORBIT:  cpu time      0.0000: real time      0.0000

 total amount of memory used by VASP MPI-rank0    50902. kBytes
=======================================================================

   base      :      30000. kBytes
   nonl-proj :        116. kBytes
   fftplans  :       8156. kBytes
   grid      :      12536. kBytes
   one-center:          1. kBytes
   wavefun   :         93. kBytes
 
  
  
 General timing and accounting informations for this job:
 ========================================================
  
                  Total CPU time used (sec):        3.400
                            User time (sec):        2.791
                          System time (sec):        0.608
                         Elapsed time (sec):        3.989
  
                   Maximum memory used (kb):      426748.
                   Average memory used (kb):          N/A
  
                          Minor page faults:        44607
                          Major page faults:           28
                 Voluntary context switches:         1105
