 vasp.6.4.2 20Jul23 (build Aug 07 2024 12:45:50) gamma-only                     
  
 executed on             LinuxIFC date 2026.09.30  12:38:24
 running   64 mpi-ranks, on    1 nodes
 distrk:  each k-point on   64 cores,    1 groups
 distr:  one band on NCORE=  32 cores,    2 groups


--------------------------------------------------------------------------------------------------------


 INCAR:
   ALGO = Normal
   EDIFF = 1e-05
   EFERMI = Midgap
   ENCUT = 520.0
   GGA = Pe
   GGA_COMPAT = False
   IBRION = -1
   ISMEAR = 0
   ISPIN = 2
   ISYM = 0
   LAECHG = False
   LASPH = True
   LCHARG = False
   LMAXMIX = 6
   LMIXTAU = True
   LREAL = False
   LWAVE = False
   MAGMOM = 1*2.0
   NCORE = 32
   NELM = 400
   NSW = 0
   PREC = Accurate
   SIGMA = 0.05
   SYSTEM = Zr_atom_ispin2

 POTCAR:    PAW_PBE Zr_sv 04Jan2005               
 -----------------------------------------------------------------------------
|                                                                             |
|           W    W    AA    RRRRR   N    N  II  N    N   GGGG   !!!           |
|           W    W   A  A   R    R  NN   N  II  NN   N  G    G  !!!           |
|           W    W  A    A  R    R  N N  N  II  N N  N  G       !!!           |
|           W WW W  AAAAAA  RRRRR   N  N N  II  N  N N  G  GGG   !            |
|           WW  WW  A    A  R   R   N   NN  II  N   NN  G    G                |
|           W    W  A    A  R    R  N    N  II  N    N   GGGG   !!!           |
|                                                                             |
|     For optimal performance we recommend to set                             |
|       NCORE = 2 up to number-of-cores-per-socket                            |
|     NCORE specifies how many cores store one orbital (NPAR=cpu/NCORE).      |
|     This setting can greatly improve the performance of VASP for DFT.       |
|     The default, NCORE=1 might be grossly inefficient on modern             |
|     multi-core architectures or massively parallel machines. Do your        |
|     own testing! More info at https://www.vasp.at/wiki/index.php/NCORE      |
|     Unfortunately you need to use the default for GW and RPA                |
|     calculations (for HF NCORE is supported but not extensively tested      |
|     yet).                                                                   |
|                                                                             |
 -----------------------------------------------------------------------------

 POTCAR:    PAW_PBE Zr_sv 04Jan2005               
   SHA256 =  25aed69cb10325f9d37c5c68912b61a17387d1f8e4f1d804860ffa10c8a4bf76 Zr_sv/POTCAR          
   COPYR  = (c) Copyright 04Jan2005 Georg Kresse                                                    
   COPYR  = This file is part of the software VASP. Any use, copying, and all other rights are regul
   COPYR  = If you do not have a valid VASP license, you may not use, copy or distribute this file. 
   VRHFIN =Zr: 4s4p5s4d                                                                             
   LEXCH  = PE                                                                                      
   EATOM  =  1284.2219 eV,   94.3876 Ry                                                             
                                                                                                    
   TITEL  = PAW_PBE Zr_sv 04Jan2005                                                                 
   LULTRA =        F    use ultrasoft PP ?                                                          
   IUNSCR =        1    unscreen: 0-lin 1-nonlin 2-no                                               
   RPACOR =    2.200    partial core radius                                                         
   POMASS =   91.224; ZVAL   =   12.000    mass and valenz                                          
   RCORE  =    2.500    outmost cutoff radius                                                       
   RWIGS  =    3.070; RWIGS  =    1.625    wigner-seitz radius (au A)                               
   ENMAX  =  229.898; ENMIN  =  172.424 eV                                                          
   ICORE  =        3    local potential                                                             
   LCOR   =        T    correct aug charges                                                         
   LPAW   =        T    paw PP                                                                      
   EAUG   =  461.257                                                                                
   DEXC   =    0.000                                                                                
   RMAX   =    2.561    core radius for proj-oper                                                   
   RAUG   =    1.300    factor for augmentation sphere                                              
   RDEP   =    2.597    radius for radial grids                                                     
   RDEPT  =    2.007    core radius for aug-charge                                                  
                                                                                                    
   Atomic configuration                                                                             
   11 entries                                                                                       
     n  l   j            E        occ.                                                              
     1  0  0.50    -17820.0161   2.0000                                                             
     2  0  0.50     -2467.0882   2.0000                                                             
     2  1  1.50     -2199.6095   6.0000                                                             
     3  0  0.50      -402.4863   2.0000                                                             
     3  1  1.50      -315.3675   6.0000                                                             
     3  2  2.50      -172.4472  10.0000                                                             
     4  0  0.50       -52.4146   2.0000                                                             
     5  0  0.50        -3.8421   1.0000                                                             
     4  1  1.50       -30.5054   6.0000                                                             
     4  2  2.50        -2.3341   3.0000                                                             
     4  3  2.50        -1.3606   0.0000                                                             
   Description                                                                                      
     l       E           TYP  RCUT    TYP  RCUT                                                     
     0    -52.4145962     23  2.200                                                                 
     0     -3.8421270     23  2.500                                                                 
     1    -30.5053914     23  2.200                                                                 
     1     20.4087390     23  2.200                                                                 
     2     -2.3340816     23  2.500                                                                 
     2     -0.6120942     23  2.500                                                                 
     3     -4.0817478     23  2.500                                                                 
  local pseudopotential read in
  partial core-charges read in
  partial kinetic energy density read in
  atomic valenz-charges read in
  non local Contribution for L=           0  read in
    real space projection operators read in
  non local Contribution for L=           0  read in
    real space projection operators read in
  non local Contribution for L=           1  read in
    real space projection operators read in
  non local Contribution for L=           1  read in
    real space projection operators read in
  non local Contribution for L=           2  read in
    real space projection operators read in
  non local Contribution for L=           2  read in
    real space projection operators read in
    PAW grid and wavefunctions read in
 
   number of l-projection  operators is LMAX  =           6
   number of lm-projection operators is LMMAX =          18
 
  PAW_PBE Zr_sv 04Jan2005               :
 energy of atom  1       EATOM=-1284.2219
 kinetic energy error for atom=    0.0043 (will be added to EATOM!!)
 
 
 POSCAR: Zr1
  positions in direct lattice
  No initial velocities read in
 exchange correlation table for  LEXCH =        8
   RHO(1)=    0.500       N(1)  =     2000
   RHO(2)=  100.500       N(2)  =     4000
 


--------------------------------------------------------------------------------------------------------


 ion  position               nearest neighbor table
   1  0.000  0.000  0.000-
 

IMPORTANT INFORMATION: All symmetrisations will be switched off!
NOSYMM: (Re-)initialisation of all symmetry stuff for point group C_1.


----------------------------------------------------------------------------------------

                                     Primitive cell                                     

  volume of cell :    5929.5600

  direct lattice vectors                    reciprocal lattice vectors
    18.000000000  0.000000000  0.000000000     0.055555556 -0.000000000  0.000000000
     0.000000000 18.100000000  0.000000000     0.000000000  0.055248619  0.000000000
     0.000000000  0.000000000 18.200000000    -0.000000000 -0.000000000  0.054945055

  length of vectors
    18.000000000 18.100000000 18.200000000     0.055555556  0.055248619  0.054945055

  position of ions in fractional coordinates (direct lattice)
     0.000000000  0.000000000  0.000000000

  ion indices of the primitive-cell ions
   primitive index   ion index
                 1           1

----------------------------------------------------------------------------------------

 
 
 KPOINTS: Automatic kpoint scheme                 

Automatic generation of k-mesh.
 Grid dimensions read from file:
 generate k-points for:    1    1    1

 Generating k-lattice:

  Cartesian coordinates                     Fractional coordinates (reciprocal lattice)
     0.055555556 -0.000000000  0.000000000     1.000000000 -0.000000000  0.000000000
     0.000000000  0.055248619  0.000000000     0.000000000  1.000000000  0.000000000
    -0.000000000 -0.000000000  0.054945055    -0.000000000 -0.000000000  1.000000000

  Length of vectors
     0.055555556  0.055248619  0.054945055

  Shift w.r.t. Gamma in fractional coordinates (k-lattice)
     0.000000000  0.000000000  0.000000000

 
 Subroutine IBZKPT returns following result:
 ===========================================
 
 Found      1 irreducible k-points:
 
 Following reciprocal coordinates:
            Coordinates               Weight
  0.000000  0.000000  0.000000      1.000000
 
 Following cartesian coordinates:
            Coordinates               Weight
  0.000000  0.000000  0.000000      1.000000
 


--------------------------------------------------------------------------------------------------------




 Dimension of arrays:
   k-points           NKPTS =      1   k-points in BZ     NKDIM =      1   number of bands    NBANDS=     12
   number of dos      NEDOS =    301   number of ions     NIONS =      1
   non local maximal  LDIM  =      6   non local SUM 2l+1 LMDIM =     18
   total plane-waves  NPLWV = ******
   max r-space proj   IRMAX =      1   max aug-charges    IRDMAX=  19440
   dimension x,y,z NGX =   140 NGY =  140 NGZ =  140
   dimension x,y,z NGXF=   280 NGYF=  280 NGZF=  280
   support grid    NGXF=   280 NGYF=  280 NGZF=  280
   ions per type =               1
   NGX,Y,Z   is equivalent  to a cutoff of  12.93, 12.86, 12.79 a.u.
   NGXF,Y,Z  is equivalent  to a cutoff of  25.86, 25.72, 25.58 a.u.

 SYSTEM =  Zr_atom_ispin2                          
 POSCAR =  Zr1                                     

 Startparameter for this run:
   NWRITE =      2    write-flag & timer
   PREC   = accura    normal or accurate (medium, high low for compatibility)
   ISTART =      0    job   : 0-new  1-cont  2-samecut
   ICHARG =      2    charge: 1-file 2-atom 10-const
   ISPIN  =      2    spin polarized calculation?
   LNONCOLLINEAR =      F non collinear calculations
   LSORBIT =      F    spin-orbit coupling
   INIWAV =      1    electr: 0-lowe 1-rand  2-diag
   LASPH  =      T    aspherical Exc in radial PAW
 Electronic Relaxation 1
   ENCUT  =  520.0 eV  38.22 Ry    6.18 a.u.  33.47 33.65 33.84*2*pi/ulx,y,z
   ENINI  =  520.0     initial cutoff
   ENAUG  =  461.3 eV  augmentation charge cutoff
   NELM   =    400;   NELMIN=  2; NELMDL= -5     # of ELM steps 
   EDIFF  = 0.1E-04   stopping-criterion for ELM
   LREAL  =      F    real-space projection
   NLSPLINE    = F    spline interpolate recip. space projectors
   LCOMPAT=      F    compatible to vasp.4.4
   GGA_COMPAT  = F    GGA compatible to vasp.4.4-vasp.4.6
   LMAXPAW     = -100 max onsite density
   LMAXMIX     =    6 max onsite mixed and CHGCAR
   VOSKOWN=      0    Vosko Wilk Nusair interpolation
   ROPT   =    0.00000
 Ionic relaxation
   EDIFFG = 0.1E-03   stopping-criterion for IOM
   NSW    =      0    number of steps for IOM
   NBLOCK =      1;   KBLOCK =      1    inner block; outer block 
   IBRION =     -1    ionic relax: 0-MD 1-quasi-New 2-CG
   NFREE  =      0    steps in history (QN), initial steepest desc. (CG)
   ISIF   =      2    stress and relaxation
   IWAVPR =     10    prediction:  0-non 1-charg 2-wave 3-comb
   ISYM   =      0    0-nonsym 1-usesym 2-fastsym
   LCORR  =      T    Harris-Foulkes like correction to forces

   POTIM  = 0.5000    time-step for ionic-motion
   TEIN   =    0.0    initial temperature
   TEBEG  =    0.0;   TEEND  =   0.0 temperature during run
   SMASS  =  -3.00    Nose mass-parameter (am)
   estimated Nose-frequenzy (Omega)   =  0.10E-29 period in steps = 0.13E+47 mass=  -0.740E-26a.u.
   SCALEE = 1.0000    scale energy and forces
   NPACO  =    256;   APACO  = 10.0  distance and # of slots for P.C.
   PSTRESS=    0.0 pullay stress

  Mass of Ions in am
   POMASS =  91.22
  Ionic Valenz
   ZVAL   =  12.00
  Atomic Wigner-Seitz radii
   RWIGS  =  -1.00
  virtual crystal weights 
   VCA    =   1.00
   NELECT =      12.0000    total number of electrons
   NUPDOWN=      -1.0000    fix difference up-down

 DOS related values:
   EMIN   =  10.00;   EMAX   =-10.00  energy-range for DOS
   EFERMI =   0.00;   METHOD = MIDGAP      
   ISMEAR =     0;   SIGMA  =   0.05  broadening in eV -4-tet -1-fermi 0-gaus

 Electronic relaxation 2 (details)
   IALGO  =     38    algorithm
   LDIAG  =      T    sub-space diagonalisation (order eigenvalues)
   LSUBROT=      F    optimize rotation matrix (better conditioning)
   TURBO    =      0    0=normal 1=particle mesh
   IRESTART =      0    0=no restart 2=restart with 2 vectors
   NREBOOT  =      0    no. of reboots
   NMIN     =      0    reboot dimension
   EREF     =   0.00    reference energy to select bands
   IMIX   =      4    mixing-type and parameters
     AMIX     =   0.40;   BMIX     =  1.00
     AMIX_MAG =   1.60;   BMIX_MAG =  1.00
     AMIN     =   0.10
     WC   =   100.;   INIMIX=   1;  MIXPRE=   1;  MAXMIX= -45

 Intra band minimization:
   WEIMIN = 0.0000     energy-eigenvalue tresh-hold
   EBREAK =  0.21E-06  absolut break condition
   DEPER  =   0.30     relativ break condition  

   TIME   =   0.40     timestep for ELM

  volume/ion in A,a.u.               =    5929.56     40014.65
  Fermi-wavevector in a.u.,A,eV,Ry     =   0.207075  0.391315  0.583419  0.042880
  Thomas-Fermi vector in A             =   0.970326
 
 Write flags
   LWAVE        =      F    write WAVECAR
   LDOWNSAMPLE  =      F    k-point downsampling of WAVECAR
   LCHARG       =      F    write CHGCAR
   LVTOT        =      F    write LOCPOT, total local potential
   LVHAR        =      F    write LOCPOT, Hartree potential only
   LELF         =      F    write electronic localiz. function (ELF)
   LORBIT       =      0    0 simple, 1 ext, 2 COOP (PROOUT), +10 PAW based schemes


 Dipole corrections
   LMONO  =      F    monopole corrections only (constant potential shift)
   LDIPOL =      F    correct potential (dipole corrections)
   IDIPOL =      0    1-x, 2-y, 3-z, 4-all directions 
   EPSILON=  1.0000000 bulk dielectric constant

 Exchange correlation treatment:
   GGA     =    PE    GGA type
   LEXCH   =     8    internal setting for exchange type
   LIBXC   =     F    Libxc                    
   VOSKOWN =     0    Vosko Wilk Nusair interpolation
   LHFCALC =     F    Hartree Fock is set to
   LHFONE  =     F    Hartree Fock one center treatment
   AEXX    =    0.0000 exact exchange contribution

 Linear response parameters
   LEPSILON=     F    determine dielectric tensor
   LRPA    =     F    only Hartree local field effects (RPA)
   LNABLA  =     F    use nabla operator in PAW spheres
   LVEL    =     F    velocity operator in full k-point grid
   CSHIFT  =0.1000    complex shift for real part using Kramers Kronig
   OMEGAMAX=  -1.0    maximum frequency
   DEG_THRESHOLD= 0.2000000E-02 threshold for treating states as degnerate
   RTIME   =   -0.100 relaxation time in fs
  (WPLASMAI=    0.000 imaginary part of plasma frequency in eV, 0.658/RTIME)
   DFIELD  = 0.0000000 0.0000000 0.0000000 field for delta impulse in time
 
  Optional k-point grid parameters
   LKPOINTS_OPT  =     F    use optional k-point grid
   KPOINTS_OPT_MODE=     1    mode for optional k-point grid
 
 Orbital magnetization related:
   ORBITALMAG=     F  switch on orbital magnetization
   LCHIMAG   =     F  perturbation theory with respect to B field
   DQ        =  0.001000  dq finite difference perturbation B field
   LLRAUG    =     F  two centre corrections for induced B field
   LBONE     =     F  B-component reconstruction in AE one-centre
   LVGVCALC  =     T  calculate vGv susceptibility
   LVGVAPPL  =     F  apply vGv susceptibility instead of pGv for G=0

 Random number generation:
   RANDOM_GENERATOR = DEFAULT
   PCG_SEED         = not used


--------------------------------------------------------------------------------------------------------


 Static calculation
 charge density and potential will be updated during run
 spin polarized calculation
 Variant of blocked Davidson
 Davidson routine will perform the subspace rotation
 perform sub-space diagonalisation
    after iterative eigenvector-optimisation
 modified Broyden-mixing scheme, WC =      100.0
 initial mixing is a Kerker type mixing with AMIX =  0.4000 and BMIX =      1.0000
 Hartree-type preconditioning will be used
 using additional bands            6
 reciprocal scheme for non local part
 use partial core corrections
 calculate Harris-corrections to forces 
   (improved forces if not selfconsistent)
 use gradient corrections 
 use of overlap-Matrix (Vanderbilt PP)
 Gauss-broadening in eV      SIGMA  =   0.05


--------------------------------------------------------------------------------------------------------


  energy-cutoff  :      520.00
  volume of cell :     5929.56
      direct lattice vectors                 reciprocal lattice vectors
    18.000000000  0.000000000  0.000000000     0.055555556 -0.000000000  0.000000000
     0.000000000 18.100000000  0.000000000     0.000000000  0.055248619  0.000000000
     0.000000000  0.000000000 18.200000000    -0.000000000 -0.000000000  0.054945055

  length of vectors
    18.000000000 18.100000000 18.200000000     0.055555556  0.055248619  0.054945055


 
 k-points in units of 2pi/SCALE and weight: Automatic kpoint scheme                 
   0.00000000  0.00000000  0.00000000       1.000
 
 k-points in reciprocal lattice and weights: Automatic kpoint scheme                 
   0.00000000  0.00000000  0.00000000       1.000
 
 position of ions in fractional coordinates (direct lattice) 
   0.00000000  0.00000000  0.00000000
 
 position of ions in cartesian coordinates  (Angst):
   0.00000000  0.00000000  0.00000000
 


--------------------------------------------------------------------------------------------------------


 use parallel FFT for orbitals z direction half grid
 k-point   1 :   0.0000 0.0000 0.0000  plane waves:   79868

 maximum and minimum number of plane-waves per node :      2508     2479

 maximum number of plane-waves:     79868
 maximum index in each direction: 
   IXMAX=   33   IYMAX=   33   IZMAX=   33
   IXMIN=  -33   IYMIN=  -33   IZMIN=    0


 parallel 3D FFT for wavefunctions:
    minimum data exchange during FFTs selected (reduces bandwidth)
 parallel 3D FFT for charge:
    minimum data exchange during FFTs selected (reduces bandwidth)


 total amount of memory used by VASP MPI-rank0    82068. kBytes
=======================================================================

   base      :      30000. kBytes
   nonl-proj :        396. kBytes
   fftplans  :      14937. kBytes
   grid      :      36243. kBytes
   one-center:         15. kBytes
   wavefun   :        477. kBytes
 
     INWAV:  cpu time      0.0000: real time      0.0000
 Broyden mixing: mesh for mixing (old mesh)
   NGX = 67   NGY = 67   NGZ = 67
  (NGX  =280   NGY  =280   NGZ  =280)
  gives a total of 300763 points

 initial charge density was supplied:
 charge density of overlapping atoms calculated
 number of electron      12.0000000 magnetization       2.0000000
 keeping initial charge density in first step


--------------------------------------------------------------------------------------------------------


 Maximum index for augmentation-charges          849 (set IRDMAX)


--------------------------------------------------------------------------------------------------------


 First call to EWALD:  gamma=   0.098
 Maximum number of real-space cells 3x 3x 3
 Maximum number of reciprocal cells 3x 3x 3

    FEWALD:  cpu time      0.0020: real time      0.0020


--------------------------------------- Ionic step        1  -------------------------------------------




--------------------------------------- Iteration      1(   1)  ---------------------------------------


    POTLOK:  cpu time      0.5878: real time      0.5920
    SETDIJ:  cpu time      0.4628: real time      0.4650
     EDDAV:  cpu time      0.1518: real time      0.1535
       DOS:  cpu time      0.0005: real time      0.0005
    --------------------------------------------
      LOOP:  cpu time      1.2029: real time      1.2110

 eigenvalue-minimisations  :    48
 total energy-change (2. order) : 0.2026373E+03  (-0.1833423E+03)
 number of electron      12.0000000 magnetization       2.0000000
 augmentation part       12.0000000 magnetization       2.0000000

 Free energy of the ion-electron system (eV)
  ---------------------------------------------------
  alpha Z        PSCENC =         0.22407474
  Ewald energy   TEWEN  =      -162.51963115
  -Hartree energ DENC   =      -890.17063661
  -exchange      EXHF   =         0.00000000
  -V(xc)+E(xc)   XCENC  =        47.44803131
  PAW double counting   =      1003.79928103     -984.83468875
  entropy T*S    EENTRO =        -0.03136716
  eigenvalues    EBANDS =       -95.49537152
  atomic energy  EATOM  =      1284.21763385
  Solvation  Ediel_sol  =         0.00000000
  ---------------------------------------------------
  free energy    TOTEN  =       202.63732573 eV

  energy without entropy =      202.66869289  energy(sigma->0) =      202.65300931


--------------------------------------------------------------------------------------------------------




--------------------------------------- Iteration      1(   2)  ---------------------------------------


     EDDAV:  cpu time      0.2168: real time      0.2196
       DOS:  cpu time      0.0002: real time      0.0002
    --------------------------------------------
      LOOP:  cpu time      0.2170: real time      0.2198

 eigenvalue-minimisations  :    92
 total energy-change (2. order) :-0.1144506E+03  (-0.1110178E+03)
 number of electron      12.0000000 magnetization       2.0000000
 augmentation part       12.0000000 magnetization       2.0000000

 Free energy of the ion-electron system (eV)
  ---------------------------------------------------
  alpha Z        PSCENC =         0.22407474
  Ewald energy   TEWEN  =      -162.51963115
  -Hartree energ DENC   =      -890.17063661
  -exchange      EXHF   =         0.00000000
  -V(xc)+E(xc)   XCENC  =        47.44803131
  PAW double counting   =      1003.79928103     -984.83468875
  entropy T*S    EENTRO =        -0.00936197
  eigenvalues    EBANDS =      -209.96797869
  atomic energy  EATOM  =      1284.21763385
  Solvation  Ediel_sol  =         0.00000000
  ---------------------------------------------------
  free energy    TOTEN  =        88.18672375 eV

  energy without entropy =       88.19608572  energy(sigma->0) =       88.19140474


--------------------------------------------------------------------------------------------------------




--------------------------------------- Iteration      1(   3)  ---------------------------------------


     EDDAV:  cpu time      0.1609: real time      0.1627
       DOS:  cpu time      0.0004: real time      0.0004
    --------------------------------------------
      LOOP:  cpu time      0.1613: real time      0.1631

 eigenvalue-minimisations  :    64
 total energy-change (2. order) :-0.8421702E+02  (-0.8320376E+02)
 number of electron      12.0000000 magnetization       2.0000000
 augmentation part       12.0000000 magnetization       2.0000000

 Free energy of the ion-electron system (eV)
  ---------------------------------------------------
  alpha Z        PSCENC =         0.22407474
  Ewald energy   TEWEN  =      -162.51963115
  -Hartree energ DENC   =      -890.17063661
  -exchange      EXHF   =         0.00000000
  -V(xc)+E(xc)   XCENC  =        47.44803131
  PAW double counting   =      1003.79928103     -984.83468875
  entropy T*S    EENTRO =        -0.02943501
  eigenvalues    EBANDS =      -294.16492905
  atomic energy  EATOM  =      1284.21763385
  Solvation  Ediel_sol  =         0.00000000
  ---------------------------------------------------
  free energy    TOTEN  =         3.96970035 eV

  energy without entropy =        3.99913536  energy(sigma->0) =        3.98441786


--------------------------------------------------------------------------------------------------------




--------------------------------------- Iteration      1(   4)  ---------------------------------------


     EDDAV:  cpu time      0.1753: real time      0.1771
       DOS:  cpu time      0.0002: real time      0.0002
    --------------------------------------------
      LOOP:  cpu time      0.1755: real time      0.1773

 eigenvalue-minimisations  :    56
 total energy-change (2. order) :-0.5561225E+01  (-0.4379887E+01)
 number of electron      12.0000000 magnetization       2.0000000
 augmentation part       12.0000000 magnetization       2.0000000

 Free energy of the ion-electron system (eV)
  ---------------------------------------------------
  alpha Z        PSCENC =         0.22407474
  Ewald energy   TEWEN  =      -162.51963115
  -Hartree energ DENC   =      -890.17063661
  -exchange      EXHF   =         0.00000000
  -V(xc)+E(xc)   XCENC  =        47.44803131
  PAW double counting   =      1003.79928103     -984.83468875
  entropy T*S    EENTRO =        -0.00000007
  eigenvalues    EBANDS =      -299.75558861
  atomic energy  EATOM  =      1284.21763385
  Solvation  Ediel_sol  =         0.00000000
  ---------------------------------------------------
  free energy    TOTEN  =        -1.59152427 eV

  energy without entropy =       -1.59152420  energy(sigma->0) =       -1.59152423


--------------------------------------------------------------------------------------------------------




--------------------------------------- Iteration      1(   5)  ---------------------------------------


     EDDAV:  cpu time      0.1605: real time      0.1622
       DOS:  cpu time      0.0012: real time      0.0012
    CHARGE:  cpu time      0.0587: real time      0.0593
    MIXING:  cpu time      0.0126: real time      0.0127
    --------------------------------------------
      LOOP:  cpu time      0.2329: real time      0.2354

 eigenvalue-minimisations  :    64
 total energy-change (2. order) :-0.2629263E+00  (-0.2365703E+00)
 number of electron      12.0000000 magnetization       2.0000000
 augmentation part       -0.0373634 magnetization       0.2149900

 Broyden mixing:
  rms(total) = 0.55692E+00    rms(broyden)= 0.55688E+00
  rms(prec ) = 0.57874E+00
  weight for this iteration     100.00

 Free energy of the ion-electron system (eV)
  ---------------------------------------------------
  alpha Z        PSCENC =         0.22407474
  Ewald energy   TEWEN  =      -162.51963115
  -Hartree energ DENC   =      -890.17063661
  -exchange      EXHF   =         0.00000000
  -V(xc)+E(xc)   XCENC  =        47.44803131
  PAW double counting   =      1003.79928103     -984.83468875
  entropy T*S    EENTRO =        -0.03671840
  eigenvalues    EBANDS =      -299.98179663
  atomic energy  EATOM  =      1284.21763385
  Solvation  Ediel_sol  =         0.00000000
  ---------------------------------------------------
  free energy    TOTEN  =        -1.85445061 eV

  energy without entropy =       -1.81773222  energy(sigma->0) =       -1.83609141


--------------------------------------------------------------------------------------------------------




--------------------------------------- Iteration      1(   6)  ---------------------------------------


    POTLOK:  cpu time      0.5863: real time      0.5905
    SETDIJ:  cpu time      0.4618: real time      0.4640
     EDDAV:  cpu time      0.1820: real time      0.1839
       DOS:  cpu time      0.0004: real time      0.0004
    CHARGE:  cpu time      0.0453: real time      0.0458
    MIXING:  cpu time      0.0106: real time      0.0107
    --------------------------------------------
      LOOP:  cpu time      1.2865: real time      1.2954

 eigenvalue-minimisations  :    72
 total energy-change (2. order) :-0.1431207E+00  (-0.2315579E+00)
 number of electron      12.0000000 magnetization       2.0036357
 augmentation part       -0.1135709 magnetization       0.1198364

 Broyden mixing:
  rms(total) = 0.36649E+00    rms(broyden)= 0.36645E+00
  rms(prec ) = 0.37849E+00
  weight for this iteration     100.00

 eigenvalues of (default mixing * dielectric matrix)
  average eigenvalue GAMMA=   0.6844
  0.6844

 Free energy of the ion-electron system (eV)
  ---------------------------------------------------
  alpha Z        PSCENC =         0.22407474
  Ewald energy   TEWEN  =      -162.51963115
  -Hartree energ DENC   =      -880.10978103
  -exchange      EXHF   =         0.00000000
  -V(xc)+E(xc)   XCENC  =        47.18174960
  PAW double counting   =       977.88885988     -957.71291895
  entropy T*S    EENTRO =        -0.02064330
  eigenvalues    EBANDS =      -311.14691499
  atomic energy  EATOM  =      1284.21763385
  Solvation  Ediel_sol  =         0.00000000
  ---------------------------------------------------
  free energy    TOTEN  =        -1.99757136 eV

  energy without entropy =       -1.97692805  energy(sigma->0) =       -1.98724971


--------------------------------------------------------------------------------------------------------




--------------------------------------- Iteration      1(   7)  ---------------------------------------


    POTLOK:  cpu time      0.5929: real time      0.5972
    SETDIJ:  cpu time      0.4607: real time      0.4629
     EDDAV:  cpu time      0.1710: real time      0.1727
       DOS:  cpu time      0.0003: real time      0.0003
    CHARGE:  cpu time      0.0463: real time      0.0469
    MIXING:  cpu time      0.0119: real time      0.0120
    --------------------------------------------
      LOOP:  cpu time      1.2830: real time      1.2920

 eigenvalue-minimisations  :    68
 total energy-change (2. order) :-0.1496075E+00  (-0.3576568E-01)
 number of electron      12.0000000 magnetization       2.0030373
 augmentation part       -0.1696567 magnetization       0.2263448

 Broyden mixing:
  rms(total) = 0.29463E+00    rms(broyden)= 0.29460E+00
  rms(prec ) = 0.30618E+00
  weight for this iteration     100.00

 eigenvalues of (default mixing * dielectric matrix)
  average eigenvalue GAMMA=   0.6347
  0.6347  0.6347

 Free energy of the ion-electron system (eV)
  ---------------------------------------------------
  alpha Z        PSCENC =         0.22407474
  Ewald energy   TEWEN  =      -162.51963115
  -Hartree energ DENC   =      -878.33534121
  -exchange      EXHF   =         0.00000000
  -V(xc)+E(xc)   XCENC  =        47.05448624
  PAW double counting   =       978.74235029     -957.56132165
  entropy T*S    EENTRO =        -0.00005632
  eigenvalues    EBANDS =      -313.96937368
  atomic energy  EATOM  =      1284.21763385
  Solvation  Ediel_sol  =         0.00000000
  ---------------------------------------------------
  free energy    TOTEN  =        -2.14717890 eV

  energy without entropy =       -2.14712258  energy(sigma->0) =       -2.14715074


--------------------------------------------------------------------------------------------------------




--------------------------------------- Iteration      1(   8)  ---------------------------------------


    POTLOK:  cpu time      0.5836: real time      0.5880
    SETDIJ:  cpu time      0.4606: real time      0.4629
     EDDAV:  cpu time      0.1768: real time      0.1785
       DOS:  cpu time      0.0002: real time      0.0002
    CHARGE:  cpu time      0.0465: real time      0.0471
    MIXING:  cpu time      0.0106: real time      0.0107
    --------------------------------------------
      LOOP:  cpu time      1.2783: real time      1.2874

 eigenvalue-minimisations  :    68
 total energy-change (2. order) :-0.3989536E-01  (-0.1062137E-01)
 number of electron      12.0000000 magnetization       2.0017374
 augmentation part       -0.1752828 magnetization       0.2252345

 Broyden mixing:
  rms(total) = 0.22246E+00    rms(broyden)= 0.22245E+00
  rms(prec ) = 0.23152E+00
  weight for this iteration     100.00

 eigenvalues of (default mixing * dielectric matrix)
  average eigenvalue GAMMA=   0.8920
  0.9969  0.9969  0.6822

 Free energy of the ion-electron system (eV)
  ---------------------------------------------------
  alpha Z        PSCENC =         0.22407474
  Ewald energy   TEWEN  =      -162.51963115
  -Hartree energ DENC   =      -877.95956200
  -exchange      EXHF   =         0.00000000
  -V(xc)+E(xc)   XCENC  =        47.06978041
  PAW double counting   =       980.34475506     -958.28980708
  entropy T*S    EENTRO =        -0.00000030
  eigenvalues    EBANDS =      -315.27431779
  atomic energy  EATOM  =      1284.21763385
  Solvation  Ediel_sol  =         0.00000000
  ---------------------------------------------------
  free energy    TOTEN  =        -2.18707426 eV

  energy without entropy =       -2.18707397  energy(sigma->0) =       -2.18707412


--------------------------------------------------------------------------------------------------------




--------------------------------------- Iteration      1(   9)  ---------------------------------------


    POTLOK:  cpu time      0.5856: real time      0.5899
    SETDIJ:  cpu time      0.4607: real time      0.4631
     EDDAV:  cpu time      0.1609: real time      0.1625
       DOS:  cpu time      0.0002: real time      0.0002
    CHARGE:  cpu time      0.0455: real time      0.0461
    MIXING:  cpu time      0.0108: real time      0.0109
    --------------------------------------------
      LOOP:  cpu time      1.2638: real time      1.2726

 eigenvalue-minimisations  :    64
 total energy-change (2. order) :-0.3409540E-01  (-0.1087900E-01)
 number of electron      12.0000000 magnetization       2.0008765
 augmentation part       -0.1660971 magnetization       0.2203646

 Broyden mixing:
  rms(total) = 0.12370E+00    rms(broyden)= 0.12369E+00
  rms(prec ) = 0.12822E+00
  weight for this iteration     100.00

 eigenvalues of (default mixing * dielectric matrix)
  average eigenvalue GAMMA=   1.1232
  1.5464  1.5464  0.7425  0.6573

 Free energy of the ion-electron system (eV)
  ---------------------------------------------------
  alpha Z        PSCENC =         0.22407474
  Ewald energy   TEWEN  =      -162.51963115
  -Hartree energ DENC   =      -878.70334707
  -exchange      EXHF   =         0.00000000
  -V(xc)+E(xc)   XCENC  =        47.13404445
  PAW double counting   =       987.09323661     -963.45359284
  entropy T*S    EENTRO =        -0.00000004
  eigenvalues    EBANDS =      -316.21358822
  atomic energy  EATOM  =      1284.21763385
  Solvation  Ediel_sol  =         0.00000000
  ---------------------------------------------------
  free energy    TOTEN  =        -2.22116967 eV

  energy without entropy =       -2.22116963  energy(sigma->0) =       -2.22116965


--------------------------------------------------------------------------------------------------------




--------------------------------------- Iteration      1(  10)  ---------------------------------------


    POTLOK:  cpu time      0.5897: real time      0.5943
    SETDIJ:  cpu time      0.4614: real time      0.4636
     EDDAV:  cpu time      0.1695: real time      0.1712
       DOS:  cpu time      0.0002: real time      0.0002
    CHARGE:  cpu time      0.0466: real time      0.0473
    MIXING:  cpu time      0.0108: real time      0.0109
    --------------------------------------------
      LOOP:  cpu time      1.2781: real time      1.2874

 eigenvalue-minimisations  :    64
 total energy-change (2. order) :-0.1904480E-01  (-0.5148889E-02)
 number of electron      12.0000000 magnetization       2.0004411
 augmentation part       -0.1634641 magnetization       0.2188512

 Broyden mixing:
  rms(total) = 0.52150E-01    rms(broyden)= 0.52145E-01
  rms(prec ) = 0.54329E-01
  weight for this iteration     100.00

 eigenvalues of (default mixing * dielectric matrix)
  average eigenvalue GAMMA=   1.1271
  1.9351  1.1652  1.0465  0.8167  0.6719

 Free energy of the ion-electron system (eV)
  ---------------------------------------------------
  alpha Z        PSCENC =         0.22407474
  Ewald energy   TEWEN  =      -162.51963115
  -Hartree energ DENC   =      -879.50428925
  -exchange      EXHF   =         0.00000000
  -V(xc)+E(xc)   XCENC  =        47.19392322
  PAW double counting   =       992.78265728     -968.18414059
  entropy T*S    EENTRO =        -0.00000000
  eigenvalues    EBANDS =      -316.45044256
  atomic energy  EATOM  =      1284.21763385
  Solvation  Ediel_sol  =         0.00000000
  ---------------------------------------------------
  free energy    TOTEN  =        -2.24021447 eV

  energy without entropy =       -2.24021447  energy(sigma->0) =       -2.24021447


--------------------------------------------------------------------------------------------------------




--------------------------------------- Iteration      1(  11)  ---------------------------------------


    POTLOK:  cpu time      0.5873: real time      0.5919
    SETDIJ:  cpu time      0.4607: real time      0.4631
     EDDAV:  cpu time      0.1763: real time      0.1780
       DOS:  cpu time      0.0002: real time      0.0002
    CHARGE:  cpu time      0.0463: real time      0.0468
    MIXING:  cpu time      0.0110: real time      0.0111
    --------------------------------------------
      LOOP:  cpu time      1.2819: real time      1.2910

 eigenvalue-minimisations  :    72
 total energy-change (2. order) :-0.1153159E-01  (-0.3051536E-02)
 number of electron      12.0000000 magnetization       2.0004256
 augmentation part       -0.1575809 magnetization       0.2190573

 Broyden mixing:
  rms(total) = 0.33920E-01    rms(broyden)= 0.33915E-01
  rms(prec ) = 0.35433E-01
  weight for this iteration     100.00

 eigenvalues of (default mixing * dielectric matrix)
  average eigenvalue GAMMA=   1.0925
  1.6919  1.6919  0.8823  0.8823  0.6243  0.7826

 Free energy of the ion-electron system (eV)
  ---------------------------------------------------
  alpha Z        PSCENC =         0.22407474
  Ewald energy   TEWEN  =      -162.51963115
  -Hartree energ DENC   =      -879.89599776
  -exchange      EXHF   =         0.00000000
  -V(xc)+E(xc)   XCENC  =        47.23352586
  PAW double counting   =       996.16493599     -971.14761468
  entropy T*S    EENTRO =        -0.00000000
  eigenvalues    EBANDS =      -316.52867291
  atomic energy  EATOM  =      1284.21763385
  Solvation  Ediel_sol  =         0.00000000
  ---------------------------------------------------
  free energy    TOTEN  =        -2.25174606 eV

  energy without entropy =       -2.25174606  energy(sigma->0) =       -2.25174606


--------------------------------------------------------------------------------------------------------




--------------------------------------- Iteration      1(  12)  ---------------------------------------


    POTLOK:  cpu time      0.5844: real time      0.5886
    SETDIJ:  cpu time      0.4605: real time      0.4628
     EDDAV:  cpu time      0.1743: real time      0.1760
       DOS:  cpu time      0.0002: real time      0.0002
    CHARGE:  cpu time      0.0456: real time      0.0461
    MIXING:  cpu time      0.0111: real time      0.0112
    --------------------------------------------
      LOOP:  cpu time      1.2762: real time      1.2848

 eigenvalue-minimisations  :    68
 total energy-change (2. order) :-0.4040941E-02  (-0.1143559E-02)
 number of electron      12.0000000 magnetization       2.0004246
 augmentation part       -0.1515425 magnetization       0.2141462

 Broyden mixing:
  rms(total) = 0.35032E-01    rms(broyden)= 0.35028E-01
  rms(prec ) = 0.36538E-01
  weight for this iteration     100.00

 eigenvalues of (default mixing * dielectric matrix)
  average eigenvalue GAMMA=   1.0348
  1.7203  1.7203  0.9385  0.9385  0.7560  0.5849  0.5849

 Free energy of the ion-electron system (eV)
  ---------------------------------------------------
  alpha Z        PSCENC =         0.22407474
  Ewald energy   TEWEN  =      -162.51963115
  -Hartree energ DENC   =      -880.05003010
  -exchange      EXHF   =         0.00000000
  -V(xc)+E(xc)   XCENC  =        47.24148592
  PAW double counting   =       996.97368399     -971.98137895
  entropy T*S    EENTRO =        -0.00000000
  eigenvalues    EBANDS =      -316.36162529
  atomic energy  EATOM  =      1284.21763385
  Solvation  Ediel_sol  =         0.00000000
  ---------------------------------------------------
  free energy    TOTEN  =        -2.25578700 eV

  energy without entropy =       -2.25578700  energy(sigma->0) =       -2.25578700


--------------------------------------------------------------------------------------------------------




--------------------------------------- Iteration      1(  13)  ---------------------------------------


    POTLOK:  cpu time      0.5978: real time      0.6022
    SETDIJ:  cpu time      0.4606: real time      0.4630
     EDDAV:  cpu time      0.1758: real time      0.1776
       DOS:  cpu time      0.0002: real time      0.0002
    CHARGE:  cpu time      0.0459: real time      0.0464
    MIXING:  cpu time      0.0114: real time      0.0115
    --------------------------------------------
      LOOP:  cpu time      1.2917: real time      1.3008

 eigenvalue-minimisations  :    72
 total energy-change (2. order) :-0.1306583E-02  (-0.2020901E-03)
 number of electron      12.0000000 magnetization       2.0004245
 augmentation part       -0.1484002 magnetization       0.2115547

 Broyden mixing:
  rms(total) = 0.35768E-01    rms(broyden)= 0.35768E-01
  rms(prec ) = 0.37298E-01
  weight for this iteration     100.00

 eigenvalues of (default mixing * dielectric matrix)
  average eigenvalue GAMMA=   1.1608
  1.4638  1.8597  1.2275  1.2275  1.4118  0.7770  0.6875  0.6320

 Free energy of the ion-electron system (eV)
  ---------------------------------------------------
  alpha Z        PSCENC =         0.22407474
  Ewald energy   TEWEN  =      -162.51963115
  -Hartree energ DENC   =      -880.11709972
  -exchange      EXHF   =         0.00000000
  -V(xc)+E(xc)   XCENC  =        47.24591559
  PAW double counting   =       997.24991109     -972.28109266
  entropy T*S    EENTRO =        -0.00000000
  eigenvalues    EBANDS =      -316.27680531
  atomic energy  EATOM  =      1284.21763385
  Solvation  Ediel_sol  =         0.00000000
  ---------------------------------------------------
  free energy    TOTEN  =        -2.25709358 eV

  energy without entropy =       -2.25709358  energy(sigma->0) =       -2.25709358


--------------------------------------------------------------------------------------------------------




--------------------------------------- Iteration      1(  14)  ---------------------------------------


    POTLOK:  cpu time      0.6013: real time      0.6056
    SETDIJ:  cpu time      0.4605: real time      0.4628
     EDDAV:  cpu time      0.1642: real time      0.1657
       DOS:  cpu time      0.0002: real time      0.0002
    CHARGE:  cpu time      0.0463: real time      0.0468
    MIXING:  cpu time      0.0119: real time      0.0120
    --------------------------------------------
      LOOP:  cpu time      1.2844: real time      1.2931

 eigenvalue-minimisations  :    56
 total energy-change (2. order) : 0.6144146E-02  (-0.7072405E-02)
 number of electron      12.0000000 magnetization       2.0004590
 augmentation part       -0.1567683 magnetization       0.2209263

 Broyden mixing:
  rms(total) = 0.31125E-01    rms(broyden)= 0.31117E-01
  rms(prec ) = 0.32609E-01
  weight for this iteration     100.00

 eigenvalues of (default mixing * dielectric matrix)
  average eigenvalue GAMMA=   1.3098
  2.9831  1.9758  1.3936  1.3936  1.2701  0.7492  0.6980  0.6980  0.6269

 Free energy of the ion-electron system (eV)
  ---------------------------------------------------
  alpha Z        PSCENC =         0.22407474
  Ewald energy   TEWEN  =      -162.51963115
  -Hartree energ DENC   =      -879.73606596
  -exchange      EXHF   =         0.00000000
  -V(xc)+E(xc)   XCENC  =        47.22755175
  PAW double counting   =       995.86228233     -970.73481272
  entropy T*S    EENTRO =        -0.00000000
  eigenvalues    EBANDS =      -316.79198227
  atomic energy  EATOM  =      1284.21763385
  Solvation  Ediel_sol  =         0.00000000
  ---------------------------------------------------
  free energy    TOTEN  =        -2.25094944 eV

  energy without entropy =       -2.25094944  energy(sigma->0) =       -2.25094944


--------------------------------------------------------------------------------------------------------




--------------------------------------- Iteration      1(  15)  ---------------------------------------


    POTLOK:  cpu time      0.5783: real time      0.5826
    SETDIJ:  cpu time      0.4606: real time      0.4629
     EDDAV:  cpu time      0.1915: real time      0.1933
       DOS:  cpu time      0.0002: real time      0.0002
    CHARGE:  cpu time      0.0463: real time      0.0470
    MIXING:  cpu time      0.0114: real time      0.0115
    --------------------------------------------
      LOOP:  cpu time      1.2884: real time      1.2974

 eigenvalue-minimisations  :    80
 total energy-change (2. order) : 0.2696329E-02  (-0.5048076E-02)
 number of electron      12.0000000 magnetization       2.0004499
 augmentation part       -0.1615504 magnetization       0.2229773

 Broyden mixing:
  rms(total) = 0.24686E-01    rms(broyden)= 0.24673E-01
  rms(prec ) = 0.26231E-01
  weight for this iteration     100.00

 eigenvalues of (default mixing * dielectric matrix)
  average eigenvalue GAMMA=   1.3478
  3.3315  1.6243  1.6243  1.5641  1.5641  0.8568  0.8568  0.7849  0.6584  0.6129

 Free energy of the ion-electron system (eV)
  ---------------------------------------------------
  alpha Z        PSCENC =         0.22407474
  Ewald energy   TEWEN  =      -162.51963115
  -Hartree energ DENC   =      -879.48467117
  -exchange      EXHF   =         0.00000000
  -V(xc)+E(xc)   XCENC  =        47.21738086
  PAW double counting   =       994.72049540     -969.57381907
  entropy T*S    EENTRO =        -0.00000000
  eigenvalues    EBANDS =      -317.04971657
  atomic energy  EATOM  =      1284.21763385
  Solvation  Ediel_sol  =         0.00000000
  ---------------------------------------------------
  free energy    TOTEN  =        -2.24825311 eV

  energy without entropy =       -2.24825311  energy(sigma->0) =       -2.24825311


--------------------------------------------------------------------------------------------------------




--------------------------------------- Iteration      1(  16)  ---------------------------------------


    POTLOK:  cpu time      0.5947: real time      0.5987
    SETDIJ:  cpu time      0.4592: real time      0.4614
     EDDAV:  cpu time      0.1654: real time      0.1670
       DOS:  cpu time      0.0002: real time      0.0002
    CHARGE:  cpu time      0.0453: real time      0.0457
    MIXING:  cpu time      0.0124: real time      0.0125
    --------------------------------------------
      LOOP:  cpu time      1.2770: real time      1.2855

 eigenvalue-minimisations  :    64
 total energy-change (2. order) :-0.1731031E-02  (-0.1364668E-02)
 number of electron      12.0000000 magnetization       2.0003833
 augmentation part       -0.1602237 magnetization       0.2190396

 Broyden mixing:
  rms(total) = 0.20248E-01    rms(broyden)= 0.20243E-01
  rms(prec ) = 0.21572E-01
  weight for this iteration     100.00

 eigenvalues of (default mixing * dielectric matrix)
  average eigenvalue GAMMA=   1.3076
  3.3335  1.7951  1.7951  1.3706  1.3706  0.9529  0.9529  0.8740  0.6662  0.6662
  0.6071

 Free energy of the ion-electron system (eV)
  ---------------------------------------------------
  alpha Z        PSCENC =         0.22407474
  Ewald energy   TEWEN  =      -162.51963115
  -Hartree energ DENC   =      -879.84509292
  -exchange      EXHF   =         0.00000000
  -V(xc)+E(xc)   XCENC  =        47.23408221
  PAW double counting   =       996.13261700     -971.07396203
  entropy T*S    EENTRO =        -0.00000000
  eigenvalues    EBANDS =      -316.61970583
  atomic energy  EATOM  =      1284.21763385
  Solvation  Ediel_sol  =         0.00000000
  ---------------------------------------------------
  free energy    TOTEN  =        -2.24998414 eV

  energy without entropy =       -2.24998414  energy(sigma->0) =       -2.24998414


--------------------------------------------------------------------------------------------------------




--------------------------------------- Iteration      1(  17)  ---------------------------------------


    POTLOK:  cpu time      0.5751: real time      0.5795
    SETDIJ:  cpu time      0.4594: real time      0.4616
     EDDAV:  cpu time      0.1703: real time      0.1720
       DOS:  cpu time      0.0002: real time      0.0002
    CHARGE:  cpu time      0.0454: real time      0.0459
    MIXING:  cpu time      0.0126: real time      0.0127
    --------------------------------------------
      LOOP:  cpu time      1.2629: real time      1.2719

 eigenvalue-minimisations  :    68
 total energy-change (2. order) :-0.2433150E-02  (-0.1027657E-02)
 number of electron      12.0000000 magnetization       2.0003655
 augmentation part       -0.1541301 magnetization       0.2141045

 Broyden mixing:
  rms(total) = 0.18702E-01    rms(broyden)= 0.18700E-01
  rms(prec ) = 0.20077E-01
  weight for this iteration     100.00

 eigenvalues of (default mixing * dielectric matrix)
  average eigenvalue GAMMA=   1.2723
  3.3440  1.9179  1.9179  1.4006  1.4006  0.9790  0.9790  0.7762  0.6535  0.6535
  0.5916  0.6537

 Free energy of the ion-electron system (eV)
  ---------------------------------------------------
  alpha Z        PSCENC =         0.22407474
  Ewald energy   TEWEN  =      -162.51963115
  -Hartree energ DENC   =      -880.10703880
  -exchange      EXHF   =         0.00000000
  -V(xc)+E(xc)   XCENC  =        47.24938490
  PAW double counting   =       997.83867237     -972.78084320
  entropy T*S    EENTRO =        -0.00000000
  eigenvalues    EBANDS =      -316.37466999
  atomic energy  EATOM  =      1284.21763385
  Solvation  Ediel_sol  =         0.00000000
  ---------------------------------------------------
  free energy    TOTEN  =        -2.25241729 eV

  energy without entropy =       -2.25241729  energy(sigma->0) =       -2.25241729


--------------------------------------------------------------------------------------------------------




--------------------------------------- Iteration      1(  18)  ---------------------------------------


    POTLOK:  cpu time      0.5821: real time      0.5865
    SETDIJ:  cpu time      0.4595: real time      0.4618
     EDDAV:  cpu time      0.1910: real time      0.1931
       DOS:  cpu time      0.0002: real time      0.0002
    CHARGE:  cpu time      0.0464: real time      0.0470
    MIXING:  cpu time      0.0123: real time      0.0124
    --------------------------------------------
      LOOP:  cpu time      1.2915: real time      1.3009

 eigenvalue-minimisations  :    80
 total energy-change (2. order) :-0.1042492E-02  (-0.2364608E-03)
 number of electron      12.0000000 magnetization       2.0003673
 augmentation part       -0.1507546 magnetization       0.2125603

 Broyden mixing:
  rms(total) = 0.18974E-01    rms(broyden)= 0.18973E-01
  rms(prec ) = 0.20334E-01
  weight for this iteration     100.00

 eigenvalues of (default mixing * dielectric matrix)
  average eigenvalue GAMMA=   1.1839
  3.3419  1.9173  1.9173  1.3987  1.3987  0.9939  0.9939  0.7775  0.6588  0.6588
  0.6571  0.5930  0.0843

 Free energy of the ion-electron system (eV)
  ---------------------------------------------------
  alpha Z        PSCENC =         0.22407474
  Ewald energy   TEWEN  =      -162.51963115
  -Hartree energ DENC   =      -880.19262333
  -exchange      EXHF   =         0.00000000
  -V(xc)+E(xc)   XCENC  =        47.25341043
  PAW double counting   =       998.33695504     -973.30857610
  entropy T*S    EENTRO =        -0.00000000
  eigenvalues    EBANDS =      -316.26470326
  atomic energy  EATOM  =      1284.21763385
  Solvation  Ediel_sol  =         0.00000000
  ---------------------------------------------------
  free energy    TOTEN  =        -2.25345978 eV

  energy without entropy =       -2.25345978  energy(sigma->0) =       -2.25345978


--------------------------------------------------------------------------------------------------------




--------------------------------------- Iteration      1(  19)  ---------------------------------------


    POTLOK:  cpu time      0.5781: real time      0.5824
    SETDIJ:  cpu time      0.4591: real time      0.4613
     EDDAV:  cpu time      0.1391: real time      0.1403
       DOS:  cpu time      0.0002: real time      0.0002
    CHARGE:  cpu time      0.0457: real time      0.0462
    MIXING:  cpu time      0.0128: real time      0.0129
    --------------------------------------------
      LOOP:  cpu time      1.2349: real time      1.2433

 eigenvalue-minimisations  :    48
 total energy-change (2. order) : 0.2113545E-03  (-0.1199563E-04)
 number of electron      12.0000000 magnetization       2.0003936
 augmentation part       -0.1505281 magnetization       0.2129331

 Broyden mixing:
  rms(total) = 0.18916E-01    rms(broyden)= 0.18916E-01
  rms(prec ) = 0.20275E-01
  weight for this iteration     100.00

 eigenvalues of (default mixing * dielectric matrix)
  average eigenvalue GAMMA=   1.3008
  3.3892  1.7113  1.9982  1.9982  1.4061  1.4061  1.1222  1.1222  0.7419  0.7419
  0.7621  0.6416  0.6153  0.5549

 Free energy of the ion-electron system (eV)
  ---------------------------------------------------
  alpha Z        PSCENC =         0.22407474
  Ewald energy   TEWEN  =      -162.51963115
  -Hartree energ DENC   =      -880.19199965
  -exchange      EXHF   =         0.00000000
  -V(xc)+E(xc)   XCENC  =        47.25353172
  PAW double counting   =       998.34666842     -973.30929672
  entropy T*S    EENTRO =        -0.00000000
  eigenvalues    EBANDS =      -316.27422963
  atomic energy  EATOM  =      1284.21763385
  Solvation  Ediel_sol  =         0.00000000
  ---------------------------------------------------
  free energy    TOTEN  =        -2.25324843 eV

  energy without entropy =       -2.25324843  energy(sigma->0) =       -2.25324843


--------------------------------------------------------------------------------------------------------




--------------------------------------- Iteration      1(  20)  ---------------------------------------


    POTLOK:  cpu time      0.5830: real time      0.5874
    SETDIJ:  cpu time      0.4593: real time      0.4615
     EDDAV:  cpu time      0.1497: real time      0.1512
       DOS:  cpu time      0.0002: real time      0.0002
    CHARGE:  cpu time      0.0453: real time      0.0459
    MIXING:  cpu time      0.0130: real time      0.0131
    --------------------------------------------
      LOOP:  cpu time      1.2506: real time      1.2594

 eigenvalue-minimisations  :    56
 total energy-change (2. order) : 0.1092586E-02  (-0.2461618E-03)
 number of electron      12.0000000 magnetization       2.0004897
 augmentation part       -0.1520393 magnetization       0.2142935

 Broyden mixing:
  rms(total) = 0.18464E-01    rms(broyden)= 0.18464E-01
  rms(prec ) = 0.19797E-01
  weight for this iteration     100.00

 eigenvalues of (default mixing * dielectric matrix)
  average eigenvalue GAMMA=   1.5101
  5.2777  3.0863  2.0251  2.0251  1.4724  1.4724  1.1881  1.1881  0.8401  0.8401
  0.7863  0.6404  0.6404  0.6236  0.5460

 Free energy of the ion-electron system (eV)
  ---------------------------------------------------
  alpha Z        PSCENC =         0.22407474
  Ewald energy   TEWEN  =      -162.51963115
  -Hartree energ DENC   =      -880.13323003
  -exchange      EXHF   =         0.00000000
  -V(xc)+E(xc)   XCENC  =        47.25031983
  PAW double counting   =       998.06158263     -973.01669460
  entropy T*S    EENTRO =        -0.00000000
  eigenvalues    EBANDS =      -316.33621110
  atomic energy  EATOM  =      1284.21763385
  Solvation  Ediel_sol  =         0.00000000
  ---------------------------------------------------
  free energy    TOTEN  =        -2.25215584 eV

  energy without entropy =       -2.25215584  energy(sigma->0) =       -2.25215584


--------------------------------------------------------------------------------------------------------




--------------------------------------- Iteration      1(  21)  ---------------------------------------


    POTLOK:  cpu time      0.5959: real time      0.6003
    SETDIJ:  cpu time      0.4600: real time      0.4624
     EDDAV:  cpu time      0.1493: real time      0.1508
       DOS:  cpu time      0.0002: real time      0.0002
    CHARGE:  cpu time      0.0456: real time      0.0461
    MIXING:  cpu time      0.0131: real time      0.0133
    --------------------------------------------
      LOOP:  cpu time      1.2640: real time      1.2729

 eigenvalue-minimisations  :    56
 total energy-change (2. order) : 0.5788851E-02  (-0.1042933E-01)
 number of electron      12.0000000 magnetization       2.0006158
 augmentation part       -0.1570413 magnetization       0.2197367

 Broyden mixing:
  rms(total) = 0.17815E-01    rms(broyden)= 0.17803E-01
  rms(prec ) = 0.19111E-01
  weight for this iteration     100.00

 eigenvalues of (default mixing * dielectric matrix)
  average eigenvalue GAMMA=   1.6907
  8.8146  3.1587  1.9648  1.9648  1.5128  1.5128  1.1764  1.1764  0.9470  0.9470
  0.8001  0.6312  0.6312  0.6509  0.5813  0.5813

 Free energy of the ion-electron system (eV)
  ---------------------------------------------------
  alpha Z        PSCENC =         0.22407474
  Ewald energy   TEWEN  =      -162.51963115
  -Hartree energ DENC   =      -879.67796413
  -exchange      EXHF   =         0.00000000
  -V(xc)+E(xc)   XCENC  =        47.23534075
  PAW double counting   =       996.19738218     -971.05264078
  entropy T*S    EENTRO =        -0.00000000
  eigenvalues    EBANDS =      -316.87056244
  atomic energy  EATOM  =      1284.21763385
  Solvation  Ediel_sol  =         0.00000000
  ---------------------------------------------------
  free energy    TOTEN  =        -2.24636699 eV

  energy without entropy =       -2.24636699  energy(sigma->0) =       -2.24636699


--------------------------------------------------------------------------------------------------------




--------------------------------------- Iteration      1(  22)  ---------------------------------------


    POTLOK:  cpu time      0.5715: real time      0.5757
    SETDIJ:  cpu time      0.4605: real time      0.4629
     EDDAV:  cpu time      0.1958: real time      0.1976
       DOS:  cpu time      0.0002: real time      0.0002
    CHARGE:  cpu time      0.0454: real time      0.0460
    MIXING:  cpu time      0.0133: real time      0.0134
    --------------------------------------------
      LOOP:  cpu time      1.2868: real time      1.2958

 eigenvalue-minimisations  :    80
 total energy-change (2. order) : 0.1595877E-02  (-0.1691583E-01)
 number of electron      12.0000000 magnetization       2.0005949
 augmentation part       -0.1575527 magnetization       0.2188424

 Broyden mixing:
  rms(total) = 0.23142E-01    rms(broyden)= 0.23124E-01
  rms(prec ) = 0.25734E-01
  weight for this iteration     100.00

 eigenvalues of (default mixing * dielectric matrix)
  average eigenvalue GAMMA=   1.5158
  6.7661  3.1584  1.8372  1.8372  1.0932  1.0932  1.2829  1.2829  1.3056  1.3056
  0.7815  0.7815  0.8219  0.6340  0.6340  0.6245  0.5290

 Free energy of the ion-electron system (eV)
  ---------------------------------------------------
  alpha Z        PSCENC =         0.22407474
  Ewald energy   TEWEN  =      -162.51963115
  -Hartree energ DENC   =      -879.25559302
  -exchange      EXHF   =         0.00000000
  -V(xc)+E(xc)   XCENC  =        47.22990208
  PAW double counting   =       994.29499070     -969.06488691
  entropy T*S    EENTRO =        -0.00000000
  eigenvalues    EBANDS =      -317.37126139
  atomic energy  EATOM  =      1284.21763385
  Solvation  Ediel_sol  =         0.00000000
  ---------------------------------------------------
  free energy    TOTEN  =        -2.24477111 eV

  energy without entropy =       -2.24477111  energy(sigma->0) =       -2.24477111


--------------------------------------------------------------------------------------------------------




--------------------------------------- Iteration      1(  23)  ---------------------------------------


    POTLOK:  cpu time      0.5679: real time      0.5721
    SETDIJ:  cpu time      0.4602: real time      0.4625
     EDDAV:  cpu time      0.1539: real time      0.1553
       DOS:  cpu time      0.0002: real time      0.0002
    CHARGE:  cpu time      0.0455: real time      0.0460
    MIXING:  cpu time      0.0137: real time      0.0137
    --------------------------------------------
      LOOP:  cpu time      1.2413: real time      1.2498

 eigenvalue-minimisations  :    56
 total energy-change (2. order) :-0.5756705E-03  (-0.9928923E-03)
 number of electron      12.0000000 magnetization       2.0004848
 augmentation part       -0.1641597 magnetization       0.2204456

 Broyden mixing:
  rms(total) = 0.15103E-01    rms(broyden)= 0.15103E-01
  rms(prec ) = 0.16920E-01
  weight for this iteration     100.00

 eigenvalues of (default mixing * dielectric matrix)
  average eigenvalue GAMMA=   1.5894
  8.3616  3.1840  1.8701  1.8701  1.6295  1.6295  1.1144  1.1144  1.1607  1.1607
  0.7170  0.7170  0.7938  0.7938  0.7145  0.5864  0.5864  0.6046

 Free energy of the ion-electron system (eV)
  ---------------------------------------------------
  alpha Z        PSCENC =         0.22407474
  Ewald energy   TEWEN  =      -162.51963115
  -Hartree energ DENC   =      -879.50188733
  -exchange      EXHF   =         0.00000000
  -V(xc)+E(xc)   XCENC  =        47.22988896
  PAW double counting   =       995.18337052     -970.00005277
  entropy T*S    EENTRO =        -0.00000000
  eigenvalues    EBANDS =      -317.07874359
  atomic energy  EATOM  =      1284.21763385
  Solvation  Ediel_sol  =         0.00000000
  ---------------------------------------------------
  free energy    TOTEN  =        -2.24534678 eV

  energy without entropy =       -2.24534678  energy(sigma->0) =       -2.24534678


--------------------------------------------------------------------------------------------------------




--------------------------------------- Iteration      1(  24)  ---------------------------------------


    POTLOK:  cpu time      0.6849: real time      0.6898
    SETDIJ:  cpu time      0.4604: real time      0.4627
     EDDAV:  cpu time      0.1541: real time      0.1558
       DOS:  cpu time      0.0002: real time      0.0002
    CHARGE:  cpu time      0.0453: real time      0.0459
    MIXING:  cpu time      0.0137: real time      0.0138
    --------------------------------------------
      LOOP:  cpu time      1.3586: real time      1.3681

 eigenvalue-minimisations  :    56
 total energy-change (2. order) :-0.2253934E-02  (-0.1284882E-02)
 number of electron      12.0000000 magnetization       2.0003438
 augmentation part       -0.1650539 magnetization       0.2203075

 Broyden mixing:
  rms(total) = 0.11343E-01    rms(broyden)= 0.11339E-01
  rms(prec ) = 0.12263E-01
  weight for this iteration     100.00

 eigenvalues of (default mixing * dielectric matrix)
  average eigenvalue GAMMA=   1.5653
  8.0626  3.1927  1.9809  1.9809  1.8143  1.8143  1.1430  1.1430  1.1893  1.1893
  0.9042  0.9042  0.7217  0.7217  0.6587  0.6587  0.6006  0.5301  0.5301

 Free energy of the ion-electron system (eV)
  ---------------------------------------------------
  alpha Z        PSCENC =         0.22407474
  Ewald energy   TEWEN  =      -162.51963115
  -Hartree energ DENC   =      -879.76965633
  -exchange      EXHF   =         0.00000000
  -V(xc)+E(xc)   XCENC  =        47.23578228
  PAW double counting   =       997.25966650     -972.00788194
  entropy T*S    EENTRO =        -0.00000000
  eigenvalues    EBANDS =      -316.88758867
  atomic energy  EATOM  =      1284.21763385
  Solvation  Ediel_sol  =         0.00000000
  ---------------------------------------------------
  free energy    TOTEN  =        -2.24760072 eV

  energy without entropy =       -2.24760072  energy(sigma->0) =       -2.24760072


--------------------------------------------------------------------------------------------------------




--------------------------------------- Iteration      1(  25)  ---------------------------------------


    POTLOK:  cpu time      0.5773: real time      0.5821
    SETDIJ:  cpu time      0.4607: real time      0.4631
     EDDAV:  cpu time      0.1384: real time      0.1397
       DOS:  cpu time      0.0002: real time      0.0002
    CHARGE:  cpu time      0.0457: real time      0.0463
    MIXING:  cpu time      0.0141: real time      0.0143
    --------------------------------------------
      LOOP:  cpu time      1.2364: real time      1.2456

 eigenvalue-minimisations  :    48
 total energy-change (2. order) :-0.1118504E-02  (-0.1443837E-02)
 number of electron      12.0000000 magnetization       2.0002551
 augmentation part       -0.1678780 magnetization       0.2224213

 Broyden mixing:
  rms(total) = 0.39282E-02    rms(broyden)= 0.39230E-02
  rms(prec ) = 0.42957E-02
  weight for this iteration     100.00

 eigenvalues of (default mixing * dielectric matrix)
  average eigenvalue GAMMA=   1.5514
  7.9999  3.1902  2.0373  2.0373  1.8722  1.8722  1.1878  1.1878  1.2121  1.2121
  1.0035  1.0035  0.8054  0.8054  0.5667  0.5667  0.6752  0.6221  0.6221  0.5489

 Free energy of the ion-electron system (eV)
  ---------------------------------------------------
  alpha Z        PSCENC =         0.22407474
  Ewald energy   TEWEN  =      -162.51963115
  -Hartree energ DENC   =      -879.94129227
  -exchange      EXHF   =         0.00000000
  -V(xc)+E(xc)   XCENC  =        47.23432401
  PAW double counting   =       998.68880656     -973.49283666
  entropy T*S    EENTRO =        -0.00000000
  eigenvalues    EBANDS =      -316.65979830
  atomic energy  EATOM  =      1284.21763385
  Solvation  Ediel_sol  =         0.00000000
  ---------------------------------------------------
  free energy    TOTEN  =        -2.24871922 eV

  energy without entropy =       -2.24871922  energy(sigma->0) =       -2.24871922


--------------------------------------------------------------------------------------------------------




--------------------------------------- Iteration      1(  26)  ---------------------------------------


    POTLOK:  cpu time      0.5738: real time      0.5781
    SETDIJ:  cpu time      0.4606: real time      0.4631
     EDDAV:  cpu time      0.1824: real time      0.1841
       DOS:  cpu time      0.0002: real time      0.0002
    CHARGE:  cpu time      0.0458: real time      0.0464
    MIXING:  cpu time      0.0143: real time      0.0144
    --------------------------------------------
      LOOP:  cpu time      1.2770: real time      1.2863

 eigenvalue-minimisations  :    72
 total energy-change (2. order) :-0.9964348E-03  (-0.7788974E-04)
 number of electron      12.0000000 magnetization       2.0001877
 augmentation part       -0.1657251 magnetization       0.2231784

 Broyden mixing:
  rms(total) = 0.35495E-02    rms(broyden)= 0.35494E-02
  rms(prec ) = 0.38648E-02
  weight for this iteration     100.00

 eigenvalues of (default mixing * dielectric matrix)
  average eigenvalue GAMMA=   1.5349
  7.7629  3.1936  2.3260  2.3260  1.7872  1.7872  1.2047  1.2047  1.2077  1.2077
  1.1158  1.1158  0.7462  0.7462  0.7446  0.7446  0.6269  0.6269  0.6187  0.5701
  0.5701

 Free energy of the ion-electron system (eV)
  ---------------------------------------------------
  alpha Z        PSCENC =         0.22407474
  Ewald energy   TEWEN  =      -162.51963115
  -Hartree energ DENC   =      -879.92854577
  -exchange      EXHF   =         0.00000000
  -V(xc)+E(xc)   XCENC  =        47.23485976
  PAW double counting   =       999.22886379     -974.03608764
  entropy T*S    EENTRO =        -0.00000000
  eigenvalues    EBANDS =      -316.67088323
  atomic energy  EATOM  =      1284.21763385
  Solvation  Ediel_sol  =         0.00000000
  ---------------------------------------------------
  free energy    TOTEN  =        -2.24971565 eV

  energy without entropy =       -2.24971565  energy(sigma->0) =       -2.24971565


--------------------------------------------------------------------------------------------------------




--------------------------------------- Iteration      1(  27)  ---------------------------------------


    POTLOK:  cpu time      0.5880: real time      0.5917
    SETDIJ:  cpu time      0.4609: real time      0.4632
     EDDAV:  cpu time      0.1597: real time      0.1612
       DOS:  cpu time      0.0002: real time      0.0002
    CHARGE:  cpu time      0.0476: real time      0.0481
    MIXING:  cpu time      0.0146: real time      0.0147
    --------------------------------------------
      LOOP:  cpu time      1.2709: real time      1.2791

 eigenvalue-minimisations  :    60
 total energy-change (2. order) :-0.5428813E-03  (-0.1568608E-03)
 number of electron      12.0000000 magnetization       2.0001540
 augmentation part       -0.1660625 magnetization       0.2231948

 Broyden mixing:
  rms(total) = 0.21278E-02    rms(broyden)= 0.21265E-02
  rms(prec ) = 0.23395E-02
  weight for this iteration     100.00

 eigenvalues of (default mixing * dielectric matrix)
  average eigenvalue GAMMA=   1.5181
  7.7997  3.1942  2.3571  2.3571  1.6590  1.6590  1.2300  1.2300  1.1990  1.1990
  1.3263  1.3263  0.9098  0.9098  0.7401  0.7401  0.5744  0.5744  0.6246  0.6246
  0.6052  0.5592

 Free energy of the ion-electron system (eV)
  ---------------------------------------------------
  alpha Z        PSCENC =         0.22407474
  Ewald energy   TEWEN  =      -162.51963115
  -Hartree energ DENC   =      -879.98833992
  -exchange      EXHF   =         0.00000000
  -V(xc)+E(xc)   XCENC  =        47.23506208
  PAW double counting   =       999.67789399     -974.51334413
  entropy T*S    EENTRO =        -0.00000000
  eigenvalues    EBANDS =      -316.58360799
  atomic energy  EATOM  =      1284.21763385
  Solvation  Ediel_sol  =         0.00000000
  ---------------------------------------------------
  free energy    TOTEN  =        -2.25025854 eV

  energy without entropy =       -2.25025854  energy(sigma->0) =       -2.25025854


--------------------------------------------------------------------------------------------------------




--------------------------------------- Iteration      1(  28)  ---------------------------------------


    POTLOK:  cpu time      0.5773: real time      0.5814
    SETDIJ:  cpu time      0.4606: real time      0.4629
     EDDAV:  cpu time      0.1916: real time      0.1936
       DOS:  cpu time      0.0002: real time      0.0002
    CHARGE:  cpu time      0.0466: real time      0.0472
    MIXING:  cpu time      0.0147: real time      0.0149
    --------------------------------------------
      LOOP:  cpu time      1.2911: real time      1.3002

 eigenvalue-minimisations  :    80
 total energy-change (2. order) :-0.2213791E-03  (-0.1230125E-04)
 number of electron      12.0000000 magnetization       2.0001101
 augmentation part       -0.1651061 magnetization       0.2228436

 Broyden mixing:
  rms(total) = 0.16330E-02    rms(broyden)= 0.16328E-02
  rms(prec ) = 0.18128E-02
  weight for this iteration     100.00

 eigenvalues of (default mixing * dielectric matrix)
  average eigenvalue GAMMA=   1.5506
  7.8291  3.1942  2.6154  2.6154  1.7576  1.7576  1.7037  1.7037  1.1910  1.1910
  1.2025  1.2025  0.9481  0.9481  0.7755  0.7755  0.5964  0.5964  0.6615  0.6406
  0.6406  0.5593  0.5593

 Free energy of the ion-electron system (eV)
  ---------------------------------------------------
  alpha Z        PSCENC =         0.22407474
  Ewald energy   TEWEN  =      -162.51963115
  -Hartree energ DENC   =      -879.95817620
  -exchange      EXHF   =         0.00000000
  -V(xc)+E(xc)   XCENC  =        47.23460836
  PAW double counting   =       999.53651147     -974.38010536
  entropy T*S    EENTRO =        -0.00000000
  eigenvalues    EBANDS =      -316.60539562
  atomic energy  EATOM  =      1284.21763385
  Solvation  Ediel_sol  =         0.00000000
  ---------------------------------------------------
  free energy    TOTEN  =        -2.25047992 eV

  energy without entropy =       -2.25047992  energy(sigma->0) =       -2.25047992


--------------------------------------------------------------------------------------------------------




--------------------------------------- Iteration      1(  29)  ---------------------------------------


    POTLOK:  cpu time      0.5925: real time      0.5970
    SETDIJ:  cpu time      0.4606: real time      0.4629
     EDDAV:  cpu time      0.1535: real time      0.1549
       DOS:  cpu time      0.0002: real time      0.0002
    CHARGE:  cpu time      0.0457: real time      0.0462
    MIXING:  cpu time      0.0150: real time      0.0151
    --------------------------------------------
      LOOP:  cpu time      1.2674: real time      1.2763

 eigenvalue-minimisations  :    56
 total energy-change (2. order) :-0.2604336E-03  (-0.1146305E-04)
 number of electron      12.0000000 magnetization       2.0000815
 augmentation part       -0.1647926 magnetization       0.2226128

 Broyden mixing:
  rms(total) = 0.14742E-02    rms(broyden)= 0.14739E-02
  rms(prec ) = 0.16318E-02
  weight for this iteration     100.00

 eigenvalues of (default mixing * dielectric matrix)
  average eigenvalue GAMMA=   1.5463
  7.8062  3.1938  2.7387  2.7387  1.8099  1.8099  1.8831  1.8831  1.1862  1.1862
  1.2041  1.2041  0.9592  0.9592  0.8057  0.8057  0.6362  0.6362  0.7073  0.5829
  0.5829  0.6193  0.6048  0.5670

 Free energy of the ion-electron system (eV)
  ---------------------------------------------------
  alpha Z        PSCENC =         0.22407474
  Ewald energy   TEWEN  =      -162.51963115
  -Hartree energ DENC   =      -879.90948581
  -exchange      EXHF   =         0.00000000
  -V(xc)+E(xc)   XCENC  =        47.23311622
  PAW double counting   =       999.19995314     -974.05965974
  entropy T*S    EENTRO =        -0.00000000
  eigenvalues    EBANDS =      -316.63674159
  atomic energy  EATOM  =      1284.21763385
  Solvation  Ediel_sol  =         0.00000000
  ---------------------------------------------------
  free energy    TOTEN  =        -2.25074035 eV

  energy without entropy =       -2.25074035  energy(sigma->0) =       -2.25074035


--------------------------------------------------------------------------------------------------------




--------------------------------------- Iteration      1(  30)  ---------------------------------------


    POTLOK:  cpu time      0.5821: real time      0.5865
    SETDIJ:  cpu time      0.4606: real time      0.4630
     EDDAV:  cpu time      0.1349: real time      0.1363
       DOS:  cpu time      0.0002: real time      0.0002
    CHARGE:  cpu time      0.0463: real time      0.0469
    MIXING:  cpu time      0.0158: real time      0.0159
    --------------------------------------------
      LOOP:  cpu time      1.2399: real time      1.2488

 eigenvalue-minimisations  :    48
 total energy-change (2. order) :-0.1382364E-03  (-0.2343431E-05)
 number of electron      12.0000000 magnetization       2.0000450
 augmentation part       -0.1645744 magnetization       0.2224281

 Broyden mixing:
  rms(total) = 0.16555E-02    rms(broyden)= 0.16553E-02
  rms(prec ) = 0.18136E-02
  weight for this iteration     100.00

 eigenvalues of (default mixing * dielectric matrix)
  average eigenvalue GAMMA=   1.5528
  7.7540  3.1935  2.9375  2.9375  1.7961  1.7961  1.9145  1.9145  1.2006  1.2006
  1.2269  1.2269  1.0930  1.0930  0.9056  0.9056  0.7268  0.7268  0.5940  0.5940
  0.6645  0.6399  0.6399  0.5686  0.5686

 Free energy of the ion-electron system (eV)
  ---------------------------------------------------
  alpha Z        PSCENC =         0.22407474
  Ewald energy   TEWEN  =      -162.51963115
  -Hartree energ DENC   =      -879.89397489
  -exchange      EXHF   =         0.00000000
  -V(xc)+E(xc)   XCENC  =        47.23300855
  PAW double counting   =       999.15825985     -974.01752964
  entropy T*S    EENTRO =        -0.00000000
  eigenvalues    EBANDS =      -316.65271988
  atomic energy  EATOM  =      1284.21763385
  Solvation  Ediel_sol  =         0.00000000
  ---------------------------------------------------
  free energy    TOTEN  =        -2.25087859 eV

  energy without entropy =       -2.25087859  energy(sigma->0) =       -2.25087859


--------------------------------------------------------------------------------------------------------




--------------------------------------- Iteration      1(  31)  ---------------------------------------


    POTLOK:  cpu time      0.5792: real time      0.5835
    SETDIJ:  cpu time      0.4609: real time      0.4632
     EDDAV:  cpu time      0.1534: real time      0.1549
       DOS:  cpu time      0.0002: real time      0.0002
    CHARGE:  cpu time      0.0465: real time      0.0469
    MIXING:  cpu time      0.0154: real time      0.0156
    --------------------------------------------
      LOOP:  cpu time      1.2556: real time      1.2643

 eigenvalue-minimisations  :    56
 total energy-change (2. order) :-0.1516011E-03  (-0.2125055E-04)
 number of electron      12.0000000 magnetization       2.0000309
 augmentation part       -0.1648787 magnetization       0.2223239

 Broyden mixing:
  rms(total) = 0.12185E-02    rms(broyden)= 0.12179E-02
  rms(prec ) = 0.13041E-02
  weight for this iteration     100.00

 eigenvalues of (default mixing * dielectric matrix)
  average eigenvalue GAMMA=   1.5582
  7.7331  3.1933  2.9531  2.9531  2.2348  2.2348  1.6074  1.6074  1.2010  1.2010
  1.2433  1.2433  1.3715  1.3715  0.9490  0.9490  0.7753  0.7753  0.5947  0.5947
  0.6795  0.6795  0.6056  0.6056  0.5784  0.5784

 Free energy of the ion-electron system (eV)
  ---------------------------------------------------
  alpha Z        PSCENC =         0.22407474
  Ewald energy   TEWEN  =      -162.51963115
  -Hartree energ DENC   =      -879.92049874
  -exchange      EXHF   =         0.00000000
  -V(xc)+E(xc)   XCENC  =        47.23367396
  PAW double counting   =       999.35805108     -974.22001353
  entropy T*S    EENTRO =        -0.00000000
  eigenvalues    EBANDS =      -316.62432039
  atomic energy  EATOM  =      1284.21763385
  Solvation  Ediel_sol  =         0.00000000
  ---------------------------------------------------
  free energy    TOTEN  =        -2.25103019 eV

  energy without entropy =       -2.25103019  energy(sigma->0) =       -2.25103019


--------------------------------------------------------------------------------------------------------




--------------------------------------- Iteration      1(  32)  ---------------------------------------


    POTLOK:  cpu time      0.5947: real time      0.5991
    SETDIJ:  cpu time      0.4611: real time      0.4634
     EDDAV:  cpu time      0.1803: real time      0.1818
       DOS:  cpu time      0.0002: real time      0.0002
    CHARGE:  cpu time      0.0476: real time      0.0483
    MIXING:  cpu time      0.0156: real time      0.0158
    --------------------------------------------
      LOOP:  cpu time      1.2995: real time      1.3085

 eigenvalue-minimisations  :    72
 total energy-change (2. order) :-0.5005909E-04  (-0.1111390E-04)
 number of electron      12.0000000 magnetization       2.0000224
 augmentation part       -0.1649079 magnetization       0.2222757

 Broyden mixing:
  rms(total) = 0.95210E-03    rms(broyden)= 0.95135E-03
  rms(prec ) = 0.10182E-02
  weight for this iteration     100.00

 eigenvalues of (default mixing * dielectric matrix)
  average eigenvalue GAMMA=   1.5770
  7.7271  3.1932  2.9591  2.9591  2.5514  2.5514  1.6778  1.6778  1.8956  1.1954
  1.1954  1.2095  1.2095  1.2075  1.2075  0.9048  0.9048  0.5960  0.5960  0.7169
  0.7169  0.6822  0.6822  0.6263  0.5986  0.5689  0.5689

 Free energy of the ion-electron system (eV)
  ---------------------------------------------------
  alpha Z        PSCENC =         0.22407474
  Ewald energy   TEWEN  =      -162.51963115
  -Hartree energ DENC   =      -879.94911559
  -exchange      EXHF   =         0.00000000
  -V(xc)+E(xc)   XCENC  =        47.23459790
  PAW double counting   =       999.55047598     -974.40985471
  entropy T*S    EENTRO =        -0.00000000
  eigenvalues    EBANDS =      -316.59926126
  atomic energy  EATOM  =      1284.21763385
  Solvation  Ediel_sol  =         0.00000000
  ---------------------------------------------------
  free energy    TOTEN  =        -2.25108025 eV

  energy without entropy =       -2.25108025  energy(sigma->0) =       -2.25108025


--------------------------------------------------------------------------------------------------------




--------------------------------------- Iteration      1(  33)  ---------------------------------------


    POTLOK:  cpu time      0.5764: real time      0.5805
    SETDIJ:  cpu time      0.4610: real time      0.4632
     EDDAV:  cpu time      0.1079: real time      0.1091
       DOS:  cpu time      0.0002: real time      0.0002
    CHARGE:  cpu time      0.0477: real time      0.0483
    MIXING:  cpu time      0.0164: real time      0.0165
    --------------------------------------------
      LOOP:  cpu time      1.2096: real time      1.2178

 eigenvalue-minimisations  :    32
 total energy-change (2. order) :-0.4653732E-04  (-0.3358219E-05)
 number of electron      12.0000000 magnetization       2.0000117
 augmentation part       -0.1649791 magnetization       0.2222879

 Broyden mixing:
  rms(total) = 0.84170E-03    rms(broyden)= 0.84075E-03
  rms(prec ) = 0.90241E-03
  weight for this iteration     100.00

 eigenvalues of (default mixing * dielectric matrix)
  average eigenvalue GAMMA=   1.6461
  7.7392  3.1931  4.2297  4.2297  2.3476  2.2360  2.2360  1.7116  1.7116  1.1966
  1.1966  1.2056  1.2056  1.3095  1.3095  0.9521  0.9521  0.7770  0.7770  0.5960
  0.5960  0.7157  0.6526  0.6526  0.6004  0.6004  0.5805  0.5805

 Free energy of the ion-electron system (eV)
  ---------------------------------------------------
  alpha Z        PSCENC =         0.22407474
  Ewald energy   TEWEN  =      -162.51963115
  -Hartree energ DENC   =      -879.94863721
  -exchange      EXHF   =         0.00000000
  -V(xc)+E(xc)   XCENC  =        47.23435543
  PAW double counting   =       999.57590558     -974.43501987
  entropy T*S    EENTRO =        -0.00000000
  eigenvalues    EBANDS =      -316.59980814
  atomic energy  EATOM  =      1284.21763385
  Solvation  Ediel_sol  =         0.00000000
  ---------------------------------------------------
  free energy    TOTEN  =        -2.25112678 eV

  energy without entropy =       -2.25112678  energy(sigma->0) =       -2.25112678


--------------------------------------------------------------------------------------------------------




--------------------------------------- Iteration      1(  34)  ---------------------------------------


    POTLOK:  cpu time      0.5706: real time      0.5747
    SETDIJ:  cpu time      0.4609: real time      0.4631
     EDDAV:  cpu time      0.1386: real time      0.1401
       DOS:  cpu time      0.0002: real time      0.0002
    CHARGE:  cpu time      0.0458: real time      0.0463
    MIXING:  cpu time      0.0163: real time      0.0164
    --------------------------------------------
      LOOP:  cpu time      1.2324: real time      1.2408

 eigenvalue-minimisations  :    48
 total energy-change (2. order) :-0.4901881E-04  (-0.2284918E-04)
 number of electron      12.0000000 magnetization       2.0000023
 augmentation part       -0.1647241 magnetization       0.2222382

 Broyden mixing:
  rms(total) = 0.11092E-02    rms(broyden)= 0.11068E-02
  rms(prec ) = 0.11561E-02
  weight for this iteration     100.00

 eigenvalues of (default mixing * dielectric matrix)
  average eigenvalue GAMMA=   1.6281
  7.7369  5.9269  3.1931  3.3827  2.4662  2.1690  2.1690  1.7149  1.7149  1.1966
  1.1966  1.2040  1.2040  1.3072  1.3072  0.9633  0.9633  0.7769  0.7769  0.5963
  0.5963  0.7171  0.6485  0.6485  0.6045  0.6045  0.5805  0.5805  0.2688

 Free energy of the ion-electron system (eV)
  ---------------------------------------------------
  alpha Z        PSCENC =         0.22407474
  Ewald energy   TEWEN  =      -162.51963115
  -Hartree energ DENC   =      -879.91642413
  -exchange      EXHF   =         0.00000000
  -V(xc)+E(xc)   XCENC  =        47.23349262
  PAW double counting   =       999.46700103     -974.32314746
  entropy T*S    EENTRO =        -0.00000000
  eigenvalues    EBANDS =      -316.63417530
  atomic energy  EATOM  =      1284.21763385
  Solvation  Ediel_sol  =         0.00000000
  ---------------------------------------------------
  free energy    TOTEN  =        -2.25117580 eV

  energy without entropy =       -2.25117580  energy(sigma->0) =       -2.25117580


--------------------------------------------------------------------------------------------------------




--------------------------------------- Iteration      1(  35)  ---------------------------------------


    POTLOK:  cpu time      0.5740: real time      0.5784
    SETDIJ:  cpu time      0.4609: real time      0.4632
     EDDAV:  cpu time      0.1198: real time      0.1242
       DOS:  cpu time      0.0002: real time      0.0002
    CHARGE:  cpu time      0.0483: real time      0.0489
    MIXING:  cpu time      0.0183: real time      0.0184
    --------------------------------------------
      LOOP:  cpu time      1.2214: real time      1.2333

 eigenvalue-minimisations  :    40
 total energy-change (2. order) :-0.1172432E-04  (-0.8114421E-06)
 number of electron      12.0000000 magnetization       1.9999971
 augmentation part       -0.1647564 magnetization       0.2222107

 Broyden mixing:
  rms(total) = 0.10480E-02    rms(broyden)= 0.10475E-02
  rms(prec ) = 0.10937E-02
  weight for this iteration     100.00

 eigenvalues of (default mixing * dielectric matrix)
  average eigenvalue GAMMA=   1.6795
  7.7367  8.5840  3.1931  3.0614  2.3574  2.0866  2.0866  1.7189  1.7189  1.1961
  1.1961  1.1966  1.1966  1.2666  1.2666  0.7712  0.7712  0.9362  0.9362  0.7599
  0.7599  0.5947  0.5947  0.7197  0.6621  0.6621  0.5973  0.5973  0.5798  0.5798

 Free energy of the ion-electron system (eV)
  ---------------------------------------------------
  alpha Z        PSCENC =         0.22407474
  Ewald energy   TEWEN  =      -162.51963115
  -Hartree energ DENC   =      -879.91425357
  -exchange      EXHF   =         0.00000000
  -V(xc)+E(xc)   XCENC  =        47.23345523
  PAW double counting   =       999.46351029     -974.32082919
  entropy T*S    EENTRO =        -0.00000000
  eigenvalues    EBANDS =      -316.63514773
  atomic energy  EATOM  =      1284.21763385
  Solvation  Ediel_sol  =         0.00000000
  ---------------------------------------------------
  free energy    TOTEN  =        -2.25118753 eV

  energy without entropy =       -2.25118753  energy(sigma->0) =       -2.25118753


--------------------------------------------------------------------------------------------------------




--------------------------------------- Iteration      1(  36)  ---------------------------------------


    POTLOK:  cpu time      0.5757: real time      0.5794
    SETDIJ:  cpu time      0.4610: real time      0.4634
     EDDAV:  cpu time      0.1083: real time      0.1093
       DOS:  cpu time      0.0002: real time      0.0002
    --------------------------------------------
      LOOP:  cpu time      1.1451: real time      1.1523

 eigenvalue-minimisations  :    32
 total energy-change (2. order) : 0.4348328E-05  (-0.6986574E-06)
 number of electron      12.0000000 magnetization       1.9999971
 augmentation part       -0.1647564 magnetization       0.2222107

 Free energy of the ion-electron system (eV)
  ---------------------------------------------------
  alpha Z        PSCENC =         0.22407474
  Ewald energy   TEWEN  =      -162.51963115
  -Hartree energ DENC   =      -879.90973709
  -exchange      EXHF   =         0.00000000
  -V(xc)+E(xc)   XCENC  =        47.23344146
  PAW double counting   =       999.44847657     -974.30569378
  entropy T*S    EENTRO =        -0.00000000
  eigenvalues    EBANDS =      -316.63974778
  atomic energy  EATOM  =      1284.21763385
  Solvation  Ediel_sol  =         0.00000000
  ---------------------------------------------------
  free energy    TOTEN  =        -2.25118318 eV

  energy without entropy =       -2.25118318  energy(sigma->0) =       -2.25118318


--------------------------------------------------------------------------------------------------------




 average (electrostatic) potential at core
  the test charge radii are     1.0638
  (the norm of the test charge is              1.0000)
       1 -89.0138
 
 
 
 E-fermi :  -3.7043     XC(G=0):  -0.2628     alpha+bet : -0.0626

 Fermi energy:        -3.7043062925

 spin component 1

 k-point     1 :       0.0000    0.0000    0.0000
  band No.  band energies     occupation 
      1     -54.4512      1.00000
      2     -32.5084      1.00000
      3     -32.5071      1.00000
      4     -32.3837      1.00000
      5      -4.5269      1.00000
      6      -4.1360      1.00000
      7      -4.1339      1.00000
      8      -3.4519      0.00000
      9      -3.4509      0.00000
     10      -3.3807      0.00000
     11      -1.5602      0.00000
     12      -1.4121      0.00000
 Fermi energy:        -3.7043062925

 spin component 2

 k-point     1 :       0.0000    0.0000    0.0000
  band No.  band energies     occupation 
      1     -53.5972      1.00000
      2     -31.6000      1.00000
      3     -31.5989      1.00000
      4     -31.2399      1.00000
      5      -3.9567      1.00000
      6      -3.0580      0.00000
      7      -3.0573      0.00000
      8      -2.6599      0.00000
      9      -2.2641      0.00000
     10      -2.2633      0.00000
     11      -1.2643      0.00000
     12      -1.2611      0.00000


--------------------------------------------------------------------------------------------------------


 soft charge-density along one line, spin component           1
         0         1         2         3         4         5         6         7         8         9
 total charge-density along one line
 
 soft charge-density along one line, spin component           2
         0         1         2         3         4         5         6         7         8         9
 total charge-density along one line
 
 pseudopotential strength for first ion, spin component:           1
 15.357 -33.193  -0.000  -0.000   0.000  -0.000  -0.000  -0.000
-33.193  20.026   0.000   0.000   0.000  -0.000  -0.000  -0.000
 -0.000   0.000  -8.877   0.016   0.013   8.835  -0.022  -0.018
 -0.000   0.000   0.016  -8.920   0.004  -0.022   8.892  -0.006
  0.000   0.000   0.013   0.004  -8.922  -0.018  -0.006   8.894
 -0.000  -0.000   8.835  -0.022  -0.018   5.682   0.019   0.016
 -0.000  -0.000  -0.022   8.892  -0.006   0.019   5.633   0.005
 -0.000  -0.000  -0.018  -0.006   8.894   0.016   0.005   5.631
  0.012   0.005   0.000   0.000   0.000  -0.000  -0.000  -0.000
  0.015   0.006   0.000   0.000   0.000  -0.000  -0.000  -0.000
 -0.011  -0.004  -0.000   0.000  -0.000   0.000  -0.000   0.000
  0.004   0.002   0.000   0.000   0.000  -0.000  -0.000  -0.000
 -0.020  -0.008  -0.000   0.000   0.000   0.000  -0.000  -0.000
  0.016   0.006   0.000   0.000   0.000  -0.000  -0.000  -0.000
  0.020   0.008   0.000   0.000   0.000  -0.000  -0.000  -0.000
 -0.014  -0.006  -0.000   0.000  -0.000   0.000  -0.000   0.000
  0.005   0.002   0.000   0.000   0.000  -0.000  -0.000  -0.000
 -0.027  -0.010  -0.000   0.000   0.000   0.000  -0.000  -0.000
 pseudopotential strength for first ion, spin component:           2
 15.085 -32.655   0.000   0.000   0.000  -0.000  -0.000  -0.000
-32.655  19.581   0.000   0.000  -0.000   0.000   0.000   0.000
  0.000   0.000  -8.778   0.005   0.004   8.698  -0.015  -0.013
  0.000   0.000   0.005  -8.791   0.002  -0.015   8.738  -0.004
  0.000  -0.000   0.004   0.002  -8.792  -0.013  -0.004   8.739
 -0.000   0.000   8.698  -0.015  -0.013   5.720   0.009   0.007
 -0.000   0.000  -0.015   8.738  -0.004   0.009   5.697   0.003
 -0.000   0.000  -0.013  -0.004   8.739   0.007   0.003   5.696
  0.007   0.011  -0.000  -0.000   0.000   0.000   0.000  -0.000
  0.009   0.014   0.000   0.000  -0.000  -0.000  -0.000   0.000
 -0.006  -0.010   0.000   0.000   0.000  -0.000  -0.000   0.000
  0.002   0.004  -0.000   0.000   0.000   0.000  -0.000  -0.000
 -0.012  -0.019  -0.000  -0.000   0.000   0.000   0.000  -0.000
  0.010   0.014  -0.000  -0.000   0.000   0.000   0.000  -0.000
  0.012   0.017   0.000   0.000  -0.000  -0.000  -0.000   0.000
 -0.008  -0.013   0.000   0.000   0.000  -0.000  -0.000   0.000
  0.003   0.005  -0.000   0.000   0.000   0.000  -0.000  -0.000
 -0.016  -0.024  -0.000  -0.000   0.000   0.000   0.000  -0.000
 total augmentation occupancy for first ion, spin component:           1
  1.997  -0.019  -0.000   0.000  -0.000   0.000   0.000  -0.000   0.031   0.037  -0.027   0.010  -0.051  -0.027  -0.033   0.024
 -0.019   2.151  -0.000  -0.000  -0.000   0.000   0.000  -0.000  -0.061  -0.074   0.053  -0.020   0.099   0.022   0.027  -0.020
 -0.000  -0.000   2.001  -0.000  -0.000  -0.017   0.000   0.000  -0.000   0.000   0.000   0.000  -0.000   0.000  -0.000  -0.000
  0.000  -0.000  -0.000   2.002  -0.000   0.000  -0.017   0.000   0.000   0.000   0.000  -0.000  -0.000  -0.000  -0.000  -0.000
 -0.000  -0.000  -0.000  -0.000   2.002   0.000   0.000  -0.017   0.000  -0.000   0.000   0.000  -0.000  -0.000   0.000  -0.000
  0.000   0.000  -0.017   0.000   0.000   0.000   0.000   0.000  -0.000   0.000   0.000  -0.000   0.000  -0.000   0.000   0.000
  0.000   0.000   0.000  -0.017   0.000   0.000   0.000   0.000  -0.000  -0.000  -0.000  -0.000   0.000   0.000  -0.000  -0.000
 -0.000  -0.000   0.000   0.000  -0.017   0.000   0.000   0.000  -0.000   0.000   0.000   0.000  -0.000  -0.000   0.000   0.000
  0.031  -0.061  -0.000   0.000   0.000  -0.000  -0.000  -0.000   0.387   0.046  -0.053  -0.029   0.222   0.118   0.014  -0.015
  0.037  -0.074   0.000   0.000  -0.000   0.000  -0.000   0.000   0.046   0.245   0.243   0.033  -0.002   0.013   0.058   0.105
 -0.027   0.053   0.000   0.000   0.000   0.000  -0.000   0.000  -0.053   0.243   0.351   0.031   0.032   0.002   0.077   0.128
  0.010  -0.020   0.000  -0.000   0.000  -0.000  -0.000   0.000  -0.029   0.033   0.031   0.009  -0.032  -0.011   0.005   0.015
 -0.051   0.099  -0.000  -0.000  -0.000   0.000   0.000  -0.000   0.222  -0.002   0.032  -0.032   0.233   0.090   0.025  -0.006
 -0.027   0.022   0.000  -0.000  -0.000  -0.000   0.000  -0.000   0.118   0.013   0.002  -0.011   0.090   0.041   0.010  -0.002
 -0.033   0.027  -0.000  -0.000   0.000   0.000  -0.000   0.000   0.014   0.058   0.077   0.005   0.025   0.010   0.020   0.028
  0.024  -0.020  -0.000  -0.000  -0.000   0.000  -0.000   0.000  -0.015   0.105   0.128   0.015  -0.006  -0.002   0.028   0.051
 -0.009   0.007  -0.000   0.000  -0.000   0.000  -0.000   0.000  -0.041  -0.003   0.006   0.004  -0.026  -0.013  -0.001   0.002
  0.045  -0.037   0.000   0.000   0.000  -0.000   0.000  -0.000   0.093   0.007  -0.017  -0.007   0.054   0.028   0.002  -0.005
 total augmentation occupancy for first ion, spin component:           2
  0.002   0.019   0.000   0.000  -0.000   0.000  -0.000  -0.000   0.023   0.028  -0.020   0.007  -0.038  -0.017  -0.020   0.014
  0.019   0.167   0.000   0.000  -0.000  -0.000  -0.000   0.000   0.190   0.230  -0.164   0.060  -0.307  -0.017  -0.020   0.014
  0.000   0.000   0.003   0.000   0.000   0.014   0.003   0.002   0.000  -0.000  -0.000   0.000  -0.000  -0.000   0.000   0.000
  0.000   0.000   0.000   0.003   0.000   0.003   0.007   0.001   0.000  -0.000  -0.000  -0.000   0.000  -0.000   0.000   0.000
 -0.000  -0.000   0.000   0.000   0.003   0.002   0.001   0.007   0.000   0.000  -0.000   0.000  -0.000  -0.000  -0.000   0.000
  0.000  -0.000   0.014   0.003   0.002  -0.000  -0.000  -0.000   0.000   0.000   0.000   0.000  -0.000  -0.000   0.000   0.000
 -0.000  -0.000   0.003   0.007   0.001  -0.000  -0.000  -0.000   0.000  -0.000  -0.000  -0.000  -0.000   0.000  -0.000  -0.000
 -0.000   0.000   0.002   0.001   0.007  -0.000  -0.000  -0.000  -0.000   0.000   0.000   0.000  -0.000  -0.000   0.000   0.000
  0.023   0.190   0.000   0.000   0.000   0.000   0.000  -0.000   0.355   0.008  -0.026  -0.039   0.274   0.123   0.020  -0.019
  0.028   0.230  -0.000  -0.000   0.000   0.000  -0.000   0.000   0.008   0.198   0.276   0.020   0.060   0.019   0.065   0.100
 -0.020  -0.164  -0.000  -0.000  -0.000   0.000  -0.000   0.000  -0.026   0.276   0.327   0.040  -0.013  -0.002   0.072   0.132
  0.007   0.060   0.000  -0.000   0.000   0.000  -0.000   0.000  -0.039   0.020   0.040   0.006  -0.016  -0.010   0.007   0.014
 -0.038  -0.307  -0.000   0.000  -0.000  -0.000  -0.000  -0.000   0.274   0.060  -0.013  -0.016   0.149   0.082   0.015   0.001
 -0.017  -0.017  -0.000  -0.000  -0.000  -0.000   0.000  -0.000   0.123   0.019  -0.002  -0.010   0.082   0.040   0.009  -0.002
 -0.020  -0.020   0.000   0.000  -0.000   0.000  -0.000   0.000   0.020   0.065   0.072   0.007   0.015   0.009   0.018   0.028
  0.014   0.014   0.000   0.000   0.000   0.000  -0.000   0.000  -0.019   0.100   0.132   0.014   0.001  -0.002   0.028   0.050
 -0.005  -0.006  -0.000   0.000  -0.000   0.000  -0.000   0.000  -0.039  -0.001   0.004   0.004  -0.029  -0.013  -0.002   0.002
  0.027   0.027   0.000  -0.000   0.000  -0.000   0.000  -0.000   0.085  -0.002  -0.010  -0.010   0.067   0.029   0.003  -0.006


------------------------ aborting loop because EDIFF is reached ----------------------------------------


    CHARGE:  cpu time      0.0468: real time      0.0472
    FORLOC:  cpu time      0.0036: real time      0.0037
    FORNL :  cpu time      0.0097: real time      0.0097
    STRESS:  cpu time      0.0384: real time      0.0387
    FORCOR:  cpu time      0.5419: real time      0.5458
    FORHAR:  cpu time      0.0539: real time      0.0544
    MIXING:  cpu time      0.0172: real time      0.0175
    OFIELD:  cpu time      0.0001: real time      0.0001

  FORCE on cell =-STRESS in cart. coord.  units (eV):
  Direction    XX          YY          ZZ          XY          YZ          ZX
  --------------------------------------------------------------------------------------
  Alpha Z     0.22407     0.22407     0.22407
  Ewald     -53.26118   -54.17388   -55.08457     0.00000     0.00000     0.00000
  Hartree   293.40501   294.79800   291.72211     0.68365     0.83594     0.25809
  E(xc)     -49.71193   -49.77735   -49.71462    -0.02044    -0.02452    -0.00639
  Local    -398.91776  -404.84984  -395.64477    -2.33033    -2.84142    -0.82899
  n-local   -28.98286   -26.56314   -28.88955     0.74317     0.90413     0.23285
  augment    -2.27135    -1.84797    -2.25262     0.12714     0.15451     0.04586
  Kinetic   239.51406   242.19742   239.62882     0.79954     0.97379     0.29731
  Fock        0.00000     0.00000     0.00000     0.00000     0.00000     0.00000
  -------------------------------------------------------------------------------------
  Total      -0.00194     0.00731    -0.01112     0.00274     0.00244    -0.00128
  in kB      -0.00052     0.00198    -0.00301     0.00074     0.00066    -0.00035
  external pressure =       -0.00 kB  Pullay stress =        0.00 kB


 VOLUME and BASIS-vectors are now :
 -----------------------------------------------------------------------------
  energy-cutoff  :      520.00
  volume of cell :     5929.56
      direct lattice vectors                 reciprocal lattice vectors
    18.000000000  0.000000000  0.000000000     0.055555556 -0.000000000  0.000000000
     0.000000000 18.100000000  0.000000000     0.000000000  0.055248619  0.000000000
     0.000000000  0.000000000 18.200000000    -0.000000000 -0.000000000  0.054945055

  length of vectors
    18.000000000 18.100000000 18.200000000     0.055555556  0.055248619  0.054945055


 FORCES acting on ions
    electron-ion (+dipol)            ewald-force                    non-local-force                 convergence-correction
 -----------------------------------------------------------------------------------------------
   -.803E-04 0.723E-05 -.532E-05   0.543E-16 0.533E-16 0.194E-16   0.261E-06 -.213E-04 -.953E-05   0.859E-04 0.298E-04 -.571E-06
 -----------------------------------------------------------------------------------------------
   -.803E-04 0.723E-05 -.532E-05   0.543E-16 0.533E-16 0.194E-16   0.261E-06 -.213E-04 -.953E-05   0.859E-04 0.298E-04 -.571E-06
 
 
 POSITION                                       TOTAL-FORCE (eV/Angst)
 -----------------------------------------------------------------------------------
      0.00000      0.00000      0.00000         0.000006      0.000016     -0.000015
 -----------------------------------------------------------------------------------
    total drift:                                0.000006      0.000016     -0.000015


--------------------------------------------------------------------------------------------------------



  FREE ENERGIE OF THE ION-ELECTRON SYSTEM (eV)
  ---------------------------------------------------
  free  energy   TOTEN  =        -2.25118318 eV

  energy  without entropy=       -2.25118318  energy(sigma->0) =       -2.25118318
 


--------------------------------------------------------------------------------------------------------


    POTLOK:  cpu time      1.0507: real time      1.0576


--------------------------------------------------------------------------------------------------------


     LOOP+:  cpu time     43.4413: real time     43.7519
    4ORBIT:  cpu time      0.0000: real time      0.0000

 total amount of memory used by VASP MPI-rank0    82068. kBytes
=======================================================================

   base      :      30000. kBytes
   nonl-proj :        396. kBytes
   fftplans  :      14937. kBytes
   grid      :      36243. kBytes
   one-center:         15. kBytes
   wavefun   :        477. kBytes
 
  
  
 General timing and accounting informations for this job:
 ========================================================
  
                  Total CPU time used (sec):       45.862
                            User time (sec):       41.093
                          System time (sec):        4.769
                         Elapsed time (sec):       46.749
  
                   Maximum memory used (kb):      494504.
                   Average memory used (kb):          N/A
  
                          Minor page faults:       127195
                          Major page faults:           28
                 Voluntary context switches:         1019
