 vasp.6.4.2 20Jul23 (build Aug 07 2024 12:45:50) gamma-only                     
  
 executed on             LinuxIFC date 2026.09.30  12:24:16
 running   64 mpi-ranks, on    1 nodes
 distrk:  each k-point on   64 cores,    1 groups
 distr:  one band on NCORE=  32 cores,    2 groups


--------------------------------------------------------------------------------------------------------


 INCAR:
   ALGO = Normal
   EDIFF = 1e-05
   EFERMI = Midgap
   ENCUT = 520.0
   GGA = Pe
   GGA_COMPAT = False
   IBRION = -1
   ISMEAR = 0
   ISPIN = 1
   ISYM = 0
   LAECHG = False
   LASPH = True
   LCHARG = False
   LMAXMIX = 6
   LMIXTAU = True
   LREAL = False
   LWAVE = False
   NCORE = 32
   NELM = 400
   NSW = 0
   PREC = Accurate
   SIGMA = 0.05
   SYSTEM = Rb_atom_ispin1

 POTCAR:    PAW_PBE Rb_sv 06Sep2000               
 -----------------------------------------------------------------------------
|                                                                             |
|           W    W    AA    RRRRR   N    N  II  N    N   GGGG   !!!           |
|           W    W   A  A   R    R  NN   N  II  NN   N  G    G  !!!           |
|           W    W  A    A  R    R  N N  N  II  N N  N  G       !!!           |
|           W WW W  AAAAAA  RRRRR   N  N N  II  N  N N  G  GGG   !            |
|           WW  WW  A    A  R   R   N   NN  II  N   NN  G    G                |
|           W    W  A    A  R    R  N    N  II  N    N   GGGG   !!!           |
|                                                                             |
|     For optimal performance we recommend to set                             |
|       NCORE = 2 up to number-of-cores-per-socket                            |
|     NCORE specifies how many cores store one orbital (NPAR=cpu/NCORE).      |
|     This setting can greatly improve the performance of VASP for DFT.       |
|     The default, NCORE=1 might be grossly inefficient on modern             |
|     multi-core architectures or massively parallel machines. Do your        |
|     own testing! More info at https://www.vasp.at/wiki/index.php/NCORE      |
|     Unfortunately you need to use the default for GW and RPA                |
|     calculations (for HF NCORE is supported but not extensively tested      |
|     yet).                                                                   |
|                                                                             |
 -----------------------------------------------------------------------------

 POTCAR:    PAW_PBE Rb_sv 06Sep2000               
   SHA256 =  06c38fe1ec7709d96d3959f5f2c66fec330a93b52b042a8fb2dfe6a3a3fb06c1 Rb_sv/POTCAR          
   COPYR  = (c) Copyright 06Sep2000 Georg Kresse                                                    
   COPYR  = This file is part of the software VASP. Any use, copying, and all other rights are regul
   COPYR  = If you do not have a valid VASP license, you may not use, copy or distribute this file. 
   VRHFIN =Rb: 4s4p5s                                                                               
   LEXCH  = PE                                                                                      
   EATOM  =   662.5034 eV,   48.6926 Ry                                                             
                                                                                                    
   TITEL  = PAW_PBE Rb_sv 06Sep2000                                                                 
   LULTRA =        F    use ultrasoft PP ?                                                          
   IUNSCR =        1    unscreen: 0-lin 1-nonlin 2-no                                               
   RPACOR =    2.200    partial core radius                                                         
   POMASS =   85.468; ZVAL   =    9.000    mass and valenz                                          
   RCORE  =    2.500    outmost cutoff radius                                                       
   RWIGS  =    4.570; RWIGS  =    2.418    wigner-seitz radius (au A)                               
   ENMAX  =  220.112; ENMIN  =  165.084 eV                                                          
   RCLOC  =    2.200    cutoff for local pot                                                        
   LCOR   =        T    correct aug charges                                                         
   LPAW   =        T    paw PP                                                                      
   EAUG   =  423.861                                                                                
   DEXC   =    0.000                                                                                
   RMAX   =    2.546    core radius for proj-oper                                                   
   RAUG   =    1.300    factor for augmentation sphere                                              
   RDEP   =    2.541    radius for radial grids                                                     
   RDEPT  =    2.044    core radius for aug-charge                                                  
                                                                                                    
   Atomic configuration                                                                             
   10 entries                                                                                       
     n  l   j            E        occ.                                                              
     1  0  0.50    -15031.5419   2.0000                                                             
     2  0  0.50     -2007.8842   2.0000                                                             
     2  1  1.50     -1779.8144   6.0000                                                             
     3  0  0.50      -297.9619   2.0000                                                             
     3  1  1.50      -224.8335   6.0000                                                             
     3  2  2.50      -103.9539  10.0000                                                             
     4  0  0.50       -31.8932   2.0000                                                             
     5  0  0.50        -2.2327   0.9990                                                             
     4  1  1.50       -15.9645   6.0000                                                             
     4  2  1.50        -0.0020   0.0010                                                             
   Description                                                                                      
     l       E           TYP  RCUT    TYP  RCUT                                                     
     0    -31.8932387     23  2.500                                                                 
     0     -2.2326525     23  2.500                                                                 
     1    -15.9644597     23  2.500                                                                 
     1    -17.3250423     23  2.500                                                                 
     2     -0.0020100     23  2.500                                                                 
  local pseudopotential read in
  partial core-charges read in
  partial kinetic energy density read in
  atomic valenz-charges read in
  non local Contribution for L=           0  read in
    real space projection operators read in
  non local Contribution for L=           0  read in
    real space projection operators read in
  non local Contribution for L=           1  read in
    real space projection operators read in
  non local Contribution for L=           1  read in
    real space projection operators read in
  non local Contribution for L=           2  read in
    real space projection operators read in
    PAW grid and wavefunctions read in
 
   number of l-projection  operators is LMAX  =           5
   number of lm-projection operators is LMMAX =          13
 
  PAW_PBE Rb_sv 06Sep2000               :
 energy of atom  1       EATOM= -662.5034
 kinetic energy error for atom=    0.0006 (will be added to EATOM!!)
 
 
 POSCAR: Rb1
  positions in direct lattice
  No initial velocities read in
 exchange correlation table for  LEXCH =        8
   RHO(1)=    0.500       N(1)  =     2000
   RHO(2)=  100.500       N(2)  =     4000
 


--------------------------------------------------------------------------------------------------------


 ion  position               nearest neighbor table
   1  0.000  0.000  0.000-
 

IMPORTANT INFORMATION: All symmetrisations will be switched off!
NOSYMM: (Re-)initialisation of all symmetry stuff for point group C_1.


----------------------------------------------------------------------------------------

                                     Primitive cell                                     

  volume of cell :    5929.5600

  direct lattice vectors                    reciprocal lattice vectors
    18.000000000  0.000000000  0.000000000     0.055555556 -0.000000000  0.000000000
     0.000000000 18.100000000  0.000000000     0.000000000  0.055248619  0.000000000
     0.000000000  0.000000000 18.200000000    -0.000000000 -0.000000000  0.054945055

  length of vectors
    18.000000000 18.100000000 18.200000000     0.055555556  0.055248619  0.054945055

  position of ions in fractional coordinates (direct lattice)
     0.000000000  0.000000000  0.000000000

  ion indices of the primitive-cell ions
   primitive index   ion index
                 1           1

----------------------------------------------------------------------------------------

 
 
 KPOINTS: Automatic kpoint scheme                 

Automatic generation of k-mesh.
 Grid dimensions read from file:
 generate k-points for:    1    1    1

 Generating k-lattice:

  Cartesian coordinates                     Fractional coordinates (reciprocal lattice)
     0.055555556 -0.000000000  0.000000000     1.000000000 -0.000000000  0.000000000
     0.000000000  0.055248619  0.000000000     0.000000000  1.000000000  0.000000000
    -0.000000000 -0.000000000  0.054945055    -0.000000000 -0.000000000  1.000000000

  Length of vectors
     0.055555556  0.055248619  0.054945055

  Shift w.r.t. Gamma in fractional coordinates (k-lattice)
     0.000000000  0.000000000  0.000000000

 
 Subroutine IBZKPT returns following result:
 ===========================================
 
 Found      1 irreducible k-points:
 
 Following reciprocal coordinates:
            Coordinates               Weight
  0.000000  0.000000  0.000000      1.000000
 
 Following cartesian coordinates:
            Coordinates               Weight
  0.000000  0.000000  0.000000      1.000000
 


--------------------------------------------------------------------------------------------------------




 Dimension of arrays:
   k-points           NKPTS =      1   k-points in BZ     NKDIM =      1   number of bands    NBANDS=      8
   number of dos      NEDOS =    301   number of ions     NIONS =      1
   non local maximal  LDIM  =      5   non local SUM 2l+1 LMDIM =     13
   total plane-waves  NPLWV = ******
   max r-space proj   IRMAX =      1   max aug-charges    IRDMAX=  22042
   dimension x,y,z NGX =   140 NGY =  140 NGZ =  140
   dimension x,y,z NGXF=   280 NGYF=  280 NGZF=  280
   support grid    NGXF=   280 NGYF=  280 NGZF=  280
   ions per type =               1
   NGX,Y,Z   is equivalent  to a cutoff of  12.93, 12.86, 12.79 a.u.
   NGXF,Y,Z  is equivalent  to a cutoff of  25.86, 25.72, 25.58 a.u.

 SYSTEM =  Rb_atom_ispin1                          
 POSCAR =  Rb1                                     

 Startparameter for this run:
   NWRITE =      2    write-flag & timer
   PREC   = accura    normal or accurate (medium, high low for compatibility)
   ISTART =      0    job   : 0-new  1-cont  2-samecut
   ICHARG =      2    charge: 1-file 2-atom 10-const
   ISPIN  =      1    spin polarized calculation?
   LNONCOLLINEAR =      F non collinear calculations
   LSORBIT =      F    spin-orbit coupling
   INIWAV =      1    electr: 0-lowe 1-rand  2-diag
   LASPH  =      T    aspherical Exc in radial PAW
 Electronic Relaxation 1
   ENCUT  =  520.0 eV  38.22 Ry    6.18 a.u.  33.47 33.65 33.84*2*pi/ulx,y,z
   ENINI  =  520.0     initial cutoff
   ENAUG  =  423.9 eV  augmentation charge cutoff
   NELM   =    400;   NELMIN=  2; NELMDL= -5     # of ELM steps 
   EDIFF  = 0.1E-04   stopping-criterion for ELM
   LREAL  =      F    real-space projection
   NLSPLINE    = F    spline interpolate recip. space projectors
   LCOMPAT=      F    compatible to vasp.4.4
   GGA_COMPAT  = F    GGA compatible to vasp.4.4-vasp.4.6
   LMAXPAW     = -100 max onsite density
   LMAXMIX     =    6 max onsite mixed and CHGCAR
   VOSKOWN=      0    Vosko Wilk Nusair interpolation
   ROPT   =    0.00000
 Ionic relaxation
   EDIFFG = 0.1E-03   stopping-criterion for IOM
   NSW    =      0    number of steps for IOM
   NBLOCK =      1;   KBLOCK =      1    inner block; outer block 
   IBRION =     -1    ionic relax: 0-MD 1-quasi-New 2-CG
   NFREE  =      0    steps in history (QN), initial steepest desc. (CG)
   ISIF   =      2    stress and relaxation
   IWAVPR =     10    prediction:  0-non 1-charg 2-wave 3-comb
   ISYM   =      0    0-nonsym 1-usesym 2-fastsym
   LCORR  =      T    Harris-Foulkes like correction to forces

   POTIM  = 0.5000    time-step for ionic-motion
   TEIN   =    0.0    initial temperature
   TEBEG  =    0.0;   TEEND  =   0.0 temperature during run
   SMASS  =  -3.00    Nose mass-parameter (am)
   estimated Nose-frequenzy (Omega)   =  0.10E-29 period in steps = 0.13E+47 mass=  -0.740E-26a.u.
   SCALEE = 1.0000    scale energy and forces
   NPACO  =    256;   APACO  = 10.0  distance and # of slots for P.C.
   PSTRESS=    0.0 pullay stress

  Mass of Ions in am
   POMASS =  85.47
  Ionic Valenz
   ZVAL   =   9.00
  Atomic Wigner-Seitz radii
   RWIGS  =  -1.00
  virtual crystal weights 
   VCA    =   1.00
   NELECT =       9.0000    total number of electrons
   NUPDOWN=      -1.0000    fix difference up-down

 DOS related values:
   EMIN   =  10.00;   EMAX   =-10.00  energy-range for DOS
   EFERMI =   0.00;   METHOD = MIDGAP      
   ISMEAR =     0;   SIGMA  =   0.05  broadening in eV -4-tet -1-fermi 0-gaus

 Electronic relaxation 2 (details)
   IALGO  =     38    algorithm
   LDIAG  =      T    sub-space diagonalisation (order eigenvalues)
   LSUBROT=      F    optimize rotation matrix (better conditioning)
   TURBO    =      0    0=normal 1=particle mesh
   IRESTART =      0    0=no restart 2=restart with 2 vectors
   NREBOOT  =      0    no. of reboots
   NMIN     =      0    reboot dimension
   EREF     =   0.00    reference energy to select bands
   IMIX   =      4    mixing-type and parameters
     AMIX     =   0.40;   BMIX     =  1.00
     AMIX_MAG =   1.60;   BMIX_MAG =  1.00
     AMIN     =   0.10
     WC   =   100.;   INIMIX=   1;  MIXPRE=   1;  MAXMIX= -45

 Intra band minimization:
   WEIMIN = 0.0000     energy-eigenvalue tresh-hold
   EBREAK =  0.31E-06  absolut break condition
   DEPER  =   0.30     relativ break condition  

   TIME   =   0.40     timestep for ELM

  volume/ion in A,a.u.               =    5929.56     40014.65
  Fermi-wavevector in a.u.,A,eV,Ry     =   0.188140  0.355533  0.481602  0.035397
  Thomas-Fermi vector in A             =   0.924900
 
 Write flags
   LWAVE        =      F    write WAVECAR
   LDOWNSAMPLE  =      F    k-point downsampling of WAVECAR
   LCHARG       =      F    write CHGCAR
   LVTOT        =      F    write LOCPOT, total local potential
   LVHAR        =      F    write LOCPOT, Hartree potential only
   LELF         =      F    write electronic localiz. function (ELF)
   LORBIT       =      0    0 simple, 1 ext, 2 COOP (PROOUT), +10 PAW based schemes


 Dipole corrections
   LMONO  =      F    monopole corrections only (constant potential shift)
   LDIPOL =      F    correct potential (dipole corrections)
   IDIPOL =      0    1-x, 2-y, 3-z, 4-all directions 
   EPSILON=  1.0000000 bulk dielectric constant

 Exchange correlation treatment:
   GGA     =    PE    GGA type
   LEXCH   =     8    internal setting for exchange type
   LIBXC   =     F    Libxc                    
   VOSKOWN =     0    Vosko Wilk Nusair interpolation
   LHFCALC =     F    Hartree Fock is set to
   LHFONE  =     F    Hartree Fock one center treatment
   AEXX    =    0.0000 exact exchange contribution

 Linear response parameters
   LEPSILON=     F    determine dielectric tensor
   LRPA    =     F    only Hartree local field effects (RPA)
   LNABLA  =     F    use nabla operator in PAW spheres
   LVEL    =     F    velocity operator in full k-point grid
   CSHIFT  =0.1000    complex shift for real part using Kramers Kronig
   OMEGAMAX=  -1.0    maximum frequency
   DEG_THRESHOLD= 0.2000000E-02 threshold for treating states as degnerate
   RTIME   =   -0.100 relaxation time in fs
  (WPLASMAI=    0.000 imaginary part of plasma frequency in eV, 0.658/RTIME)
   DFIELD  = 0.0000000 0.0000000 0.0000000 field for delta impulse in time
 
  Optional k-point grid parameters
   LKPOINTS_OPT  =     F    use optional k-point grid
   KPOINTS_OPT_MODE=     1    mode for optional k-point grid
 
 Orbital magnetization related:
   ORBITALMAG=     F  switch on orbital magnetization
   LCHIMAG   =     F  perturbation theory with respect to B field
   DQ        =  0.001000  dq finite difference perturbation B field
   LLRAUG    =     F  two centre corrections for induced B field
   LBONE     =     F  B-component reconstruction in AE one-centre
   LVGVCALC  =     T  calculate vGv susceptibility
   LVGVAPPL  =     F  apply vGv susceptibility instead of pGv for G=0

 Random number generation:
   RANDOM_GENERATOR = DEFAULT
   PCG_SEED         = not used


--------------------------------------------------------------------------------------------------------


 Static calculation
 charge density and potential will be updated during run
 non-spin polarized calculation
 Variant of blocked Davidson
 Davidson routine will perform the subspace rotation
 perform sub-space diagonalisation
    after iterative eigenvector-optimisation
 modified Broyden-mixing scheme, WC =      100.0
 initial mixing is a Kerker type mixing with AMIX =  0.4000 and BMIX =      1.0000
 Hartree-type preconditioning will be used
 using additional bands            3
 reciprocal scheme for non local part
 use partial core corrections
 calculate Harris-corrections to forces 
   (improved forces if not selfconsistent)
 use gradient corrections 
 use of overlap-Matrix (Vanderbilt PP)
 Gauss-broadening in eV      SIGMA  =   0.05


--------------------------------------------------------------------------------------------------------


  energy-cutoff  :      520.00
  volume of cell :     5929.56
      direct lattice vectors                 reciprocal lattice vectors
    18.000000000  0.000000000  0.000000000     0.055555556 -0.000000000  0.000000000
     0.000000000 18.100000000  0.000000000     0.000000000  0.055248619  0.000000000
     0.000000000  0.000000000 18.200000000    -0.000000000 -0.000000000  0.054945055

  length of vectors
    18.000000000 18.100000000 18.200000000     0.055555556  0.055248619  0.054945055


 
 k-points in units of 2pi/SCALE and weight: Automatic kpoint scheme                 
   0.00000000  0.00000000  0.00000000       1.000
 
 k-points in reciprocal lattice and weights: Automatic kpoint scheme                 
   0.00000000  0.00000000  0.00000000       1.000
 
 position of ions in fractional coordinates (direct lattice) 
   0.00000000  0.00000000  0.00000000
 
 position of ions in cartesian coordinates  (Angst):
   0.00000000  0.00000000  0.00000000
 


--------------------------------------------------------------------------------------------------------


 use parallel FFT for orbitals z direction half grid
 k-point   1 :   0.0000 0.0000 0.0000  plane waves:   79868

 maximum and minimum number of plane-waves per node :      2508     2479

 maximum number of plane-waves:     79868
 maximum index in each direction: 
   IXMAX=   33   IYMAX=   33   IZMAX=   33
   IXMIN=  -33   IYMIN=  -33   IZMIN=    0


 parallel 3D FFT for wavefunctions:
    minimum data exchange during FFTs selected (reduces bandwidth)
 parallel 3D FFT for charge:
    minimum data exchange during FFTs selected (reduces bandwidth)


 total amount of memory used by VASP MPI-rank0    68233. kBytes
=======================================================================

   base      :      30000. kBytes
   nonl-proj :        297. kBytes
   fftplans  :      14937. kBytes
   grid      :      22836. kBytes
   one-center:          4. kBytes
   wavefun   :        159. kBytes
 
     INWAV:  cpu time      0.0000: real time      0.0000
 Broyden mixing: mesh for mixing (old mesh)
   NGX = 67   NGY = 67   NGZ = 67
  (NGX  =280   NGY  =280   NGZ  =280)
  gives a total of 300763 points

 initial charge density was supplied:
 charge density of overlapping atoms calculated
 number of electron       9.0000000 magnetization 
 keeping initial charge density in first step


--------------------------------------------------------------------------------------------------------


 Maximum index for augmentation-charges          925 (set IRDMAX)


--------------------------------------------------------------------------------------------------------


 First call to EWALD:  gamma=   0.098
 Maximum number of real-space cells 3x 3x 3
 Maximum number of reciprocal cells 3x 3x 3

    FEWALD:  cpu time      0.0020: real time      0.0020


--------------------------------------- Ionic step        1  -------------------------------------------




--------------------------------------- Iteration      1(   1)  ---------------------------------------


    POTLOK:  cpu time      0.2473: real time      0.2492
    SETDIJ:  cpu time      0.1171: real time      0.1177
     EDDAV:  cpu time      0.0500: real time      0.0504
       DOS:  cpu time      0.0005: real time      0.0005
    --------------------------------------------
      LOOP:  cpu time      0.4148: real time      0.4178

 eigenvalue-minimisations  :    16
 total energy-change (2. order) : 0.1048425E+03  (-0.1345714E+03)
 number of electron       9.0000000 magnetization 
 augmentation part        9.0000000 magnetization 

 Free energy of the ion-electron system (eV)
  ---------------------------------------------------
  alpha Z        PSCENC =         0.26356293
  Ewald energy   TEWEN  =       -91.41729252
  -Hartree energ DENC   =      -442.61463989
  -exchange      EXHF   =         0.00000000
  -V(xc)+E(xc)   XCENC  =        28.05811216
  PAW double counting   =       505.12165471     -500.59792104
  entropy T*S    EENTRO =        -0.02820948
  eigenvalues    EBANDS =       -56.44555391
  atomic energy  EATOM  =       662.50282877
  Solvation  Ediel_sol  =         0.00000000
  ---------------------------------------------------
  free energy    TOTEN  =       104.84254173 eV

  energy without entropy =      104.87075121  energy(sigma->0) =      104.85664647


--------------------------------------------------------------------------------------------------------




--------------------------------------- Iteration      1(   2)  ---------------------------------------


     EDDAV:  cpu time      0.0778: real time      0.0792
       DOS:  cpu time      0.0003: real time      0.0003
    --------------------------------------------
      LOOP:  cpu time      0.0781: real time      0.0795

 eigenvalue-minimisations  :    32
 total energy-change (2. order) :-0.6760747E+02  (-0.6760747E+02)
 number of electron       9.0000000 magnetization 
 augmentation part        9.0000000 magnetization 

 Free energy of the ion-electron system (eV)
  ---------------------------------------------------
  alpha Z        PSCENC =         0.26356293
  Ewald energy   TEWEN  =       -91.41729252
  -Hartree energ DENC   =      -442.61463989
  -exchange      EXHF   =         0.00000000
  -V(xc)+E(xc)   XCENC  =        28.05811216
  PAW double counting   =       505.12165471     -500.59792104
  entropy T*S    EENTRO =        -0.02820948
  eigenvalues    EBANDS =      -124.05302623
  atomic energy  EATOM  =       662.50282877
  Solvation  Ediel_sol  =         0.00000000
  ---------------------------------------------------
  free energy    TOTEN  =        37.23506941 eV

  energy without entropy =       37.26327889  energy(sigma->0) =       37.24917415


--------------------------------------------------------------------------------------------------------




--------------------------------------- Iteration      1(   3)  ---------------------------------------


     EDDAV:  cpu time      0.0455: real time      0.0460
       DOS:  cpu time      0.0004: real time      0.0004
    --------------------------------------------
      LOOP:  cpu time      0.0459: real time      0.0463

 eigenvalue-minimisations  :    16
 total energy-change (2. order) :-0.3498878E+02  (-0.3498878E+02)
 number of electron       9.0000000 magnetization 
 augmentation part        9.0000000 magnetization 

 Free energy of the ion-electron system (eV)
  ---------------------------------------------------
  alpha Z        PSCENC =         0.26356293
  Ewald energy   TEWEN  =       -91.41729252
  -Hartree energ DENC   =      -442.61463989
  -exchange      EXHF   =         0.00000000
  -V(xc)+E(xc)   XCENC  =        28.05811216
  PAW double counting   =       505.12165471     -500.59792104
  entropy T*S    EENTRO =        -0.02820948
  eigenvalues    EBANDS =      -159.04180535
  atomic energy  EATOM  =       662.50282877
  Solvation  Ediel_sol  =         0.00000000
  ---------------------------------------------------
  free energy    TOTEN  =         2.24629029 eV

  energy without entropy =        2.27449977  energy(sigma->0) =        2.26039503


--------------------------------------------------------------------------------------------------------




--------------------------------------- Iteration      1(   4)  ---------------------------------------


     EDDAV:  cpu time      0.0461: real time      0.0465
       DOS:  cpu time      0.0004: real time      0.0004
    --------------------------------------------
      LOOP:  cpu time      0.0464: real time      0.0468

 eigenvalue-minimisations  :    16
 total energy-change (2. order) :-0.2275825E+01  (-0.2275825E+01)
 number of electron       9.0000000 magnetization 
 augmentation part        9.0000000 magnetization 

 Free energy of the ion-electron system (eV)
  ---------------------------------------------------
  alpha Z        PSCENC =         0.26356293
  Ewald energy   TEWEN  =       -91.41729252
  -Hartree energ DENC   =      -442.61463989
  -exchange      EXHF   =         0.00000000
  -V(xc)+E(xc)   XCENC  =        28.05811216
  PAW double counting   =       505.12165471     -500.59792104
  entropy T*S    EENTRO =        -0.02820948
  eigenvalues    EBANDS =      -161.31763038
  atomic energy  EATOM  =       662.50282877
  Solvation  Ediel_sol  =         0.00000000
  ---------------------------------------------------
  free energy    TOTEN  =        -0.02953474 eV

  energy without entropy =       -0.00132526  energy(sigma->0) =       -0.01543000


--------------------------------------------------------------------------------------------------------




--------------------------------------- Iteration      1(   5)  ---------------------------------------


     EDDAV:  cpu time      0.0627: real time      0.0632
       DOS:  cpu time      0.0003: real time      0.0003
    CHARGE:  cpu time      0.0236: real time      0.0238
    MIXING:  cpu time      0.0062: real time      0.0063
    --------------------------------------------
      LOOP:  cpu time      0.0929: real time      0.0937

 eigenvalue-minimisations  :    24
 total energy-change (2. order) :-0.2124663E-01  (-0.2124663E-01)
 number of electron       9.0000000 magnetization 
 augmentation part       -0.2374763 magnetization 

 Broyden mixing:
  rms(total) = 0.22596E-02    rms(broyden)= 0.21934E-02
  rms(prec ) = 0.22996E-02
  weight for this iteration     100.00

 Free energy of the ion-electron system (eV)
  ---------------------------------------------------
  alpha Z        PSCENC =         0.26356293
  Ewald energy   TEWEN  =       -91.41729252
  -Hartree energ DENC   =      -442.61463989
  -exchange      EXHF   =         0.00000000
  -V(xc)+E(xc)   XCENC  =        28.05811216
  PAW double counting   =       505.12165471     -500.59792104
  entropy T*S    EENTRO =        -0.02820948
  eigenvalues    EBANDS =      -161.33887701
  atomic energy  EATOM  =       662.50282877
  Solvation  Ediel_sol  =         0.00000000
  ---------------------------------------------------
  free energy    TOTEN  =        -0.05078137 eV

  energy without entropy =       -0.02257189  energy(sigma->0) =       -0.03667663


--------------------------------------------------------------------------------------------------------




--------------------------------------- Iteration      1(   6)  ---------------------------------------


    POTLOK:  cpu time      0.2432: real time      0.2451
    SETDIJ:  cpu time      0.1164: real time      0.1169
     EDDAV:  cpu time      0.0641: real time      0.0646
       DOS:  cpu time      0.0004: real time      0.0004
    CHARGE:  cpu time      0.0218: real time      0.0220
    MIXING:  cpu time      0.0048: real time      0.0049
    --------------------------------------------
      LOOP:  cpu time      0.4507: real time      0.4539

 eigenvalue-minimisations  :    24
 total energy-change (2. order) :-0.2444288E-03  (-0.2607021E-03)
 number of electron       9.0000000 magnetization 
 augmentation part       -0.2398116 magnetization 

 Broyden mixing:
  rms(total) = 0.12776E-02    rms(broyden)= 0.12726E-02
  rms(prec ) = 0.12898E-02
  weight for this iteration     100.00

 eigenvalues of (default mixing * dielectric matrix)
  average eigenvalue GAMMA=   0.7939
  0.7939

 Free energy of the ion-electron system (eV)
  ---------------------------------------------------
  alpha Z        PSCENC =         0.26356293
  Ewald energy   TEWEN  =       -91.41729252
  -Hartree energ DENC   =      -442.58968233
  -exchange      EXHF   =         0.00000000
  -V(xc)+E(xc)   XCENC  =        28.05736141
  PAW double counting   =       504.78269980     -500.26420461
  entropy T*S    EENTRO =        -0.02820948
  eigenvalues    EBANDS =      -161.35808977
  atomic energy  EATOM  =       662.50282877
  Solvation  Ediel_sol  =         0.00000000
  ---------------------------------------------------
  free energy    TOTEN  =        -0.05102580 eV

  energy without entropy =       -0.02281632  energy(sigma->0) =       -0.03692106


--------------------------------------------------------------------------------------------------------




--------------------------------------- Iteration      1(   7)  ---------------------------------------


    POTLOK:  cpu time      0.2358: real time      0.2378
    SETDIJ:  cpu time      0.1161: real time      0.1167
     EDDAV:  cpu time      0.0645: real time      0.0650
       DOS:  cpu time      0.0004: real time      0.0004
    CHARGE:  cpu time      0.0224: real time      0.0226
    MIXING:  cpu time      0.0049: real time      0.0049
    --------------------------------------------
      LOOP:  cpu time      0.4441: real time      0.4473

 eigenvalue-minimisations  :    24
 total energy-change (2. order) :-0.1567878E-04  (-0.6449182E-05)
 number of electron       9.0000000 magnetization 
 augmentation part       -0.2403335 magnetization 

 Broyden mixing:
  rms(total) = 0.10032E-02    rms(broyden)= 0.10030E-02
  rms(prec ) = 0.10264E-02
  weight for this iteration     100.00

 eigenvalues of (default mixing * dielectric matrix)
  average eigenvalue GAMMA=   1.1993
  1.1993  1.1993

 Free energy of the ion-electron system (eV)
  ---------------------------------------------------
  alpha Z        PSCENC =         0.26356293
  Ewald energy   TEWEN  =       -91.41729252
  -Hartree energ DENC   =      -442.59658133
  -exchange      EXHF   =         0.00000000
  -V(xc)+E(xc)   XCENC  =        28.05765343
  PAW double counting   =       504.81835176     -500.29853443
  entropy T*S    EENTRO =        -0.02820948
  eigenvalues    EBANDS =      -161.35282061
  atomic energy  EATOM  =       662.50282877
  Solvation  Ediel_sol  =         0.00000000
  ---------------------------------------------------
  free energy    TOTEN  =        -0.05104148 eV

  energy without entropy =       -0.02283200  energy(sigma->0) =       -0.03693674


--------------------------------------------------------------------------------------------------------




--------------------------------------- Iteration      1(   8)  ---------------------------------------


    POTLOK:  cpu time      0.2439: real time      0.2458
    SETDIJ:  cpu time      0.1162: real time      0.1168
     EDDAV:  cpu time      0.0792: real time      0.0799
       DOS:  cpu time      0.0004: real time      0.0004
    CHARGE:  cpu time      0.0218: real time      0.0220
    MIXING:  cpu time      0.0049: real time      0.0049
    --------------------------------------------
      LOOP:  cpu time      0.4663: real time      0.4697

 eigenvalue-minimisations  :    32
 total energy-change (2. order) :-0.1452093E-04  (-0.2880289E-06)
 number of electron       9.0000000 magnetization 
 augmentation part       -0.2403432 magnetization 

 Broyden mixing:
  rms(total) = 0.43786E-03    rms(broyden)= 0.43784E-03
  rms(prec ) = 0.45270E-03
  weight for this iteration     100.00

 eigenvalues of (default mixing * dielectric matrix)
  average eigenvalue GAMMA=   1.3909
  2.0263  0.9266  1.2198

 Free energy of the ion-electron system (eV)
  ---------------------------------------------------
  alpha Z        PSCENC =         0.26356293
  Ewald energy   TEWEN  =       -91.41729252
  -Hartree energ DENC   =      -442.60825958
  -exchange      EXHF   =         0.00000000
  -V(xc)+E(xc)   XCENC  =        28.05807357
  PAW double counting   =       504.94911191     -500.42614528
  entropy T*S    EENTRO =        -0.02820948
  eigenvalues    EBANDS =      -161.34472631
  atomic energy  EATOM  =       662.50282877
  Solvation  Ediel_sol  =         0.00000000
  ---------------------------------------------------
  free energy    TOTEN  =        -0.05105600 eV

  energy without entropy =       -0.02284652  energy(sigma->0) =       -0.03695126


--------------------------------------------------------------------------------------------------------




--------------------------------------- Iteration      1(   9)  ---------------------------------------


    POTLOK:  cpu time      0.2439: real time      0.2458
    SETDIJ:  cpu time      0.1167: real time      0.1173
     EDDAV:  cpu time      0.0502: real time      0.0505
       DOS:  cpu time      0.0004: real time      0.0004
    --------------------------------------------
      LOOP:  cpu time      0.4111: real time      0.4139

 eigenvalue-minimisations  :    16
 total energy-change (2. order) :-0.4488394E-05  (-0.1425314E-06)
 number of electron       9.0000000 magnetization 
 augmentation part       -0.2403432 magnetization 

 Free energy of the ion-electron system (eV)
  ---------------------------------------------------
  alpha Z        PSCENC =         0.26356293
  Ewald energy   TEWEN  =       -91.41729252
  -Hartree energ DENC   =      -442.61864895
  -exchange      EXHF   =         0.00000000
  -V(xc)+E(xc)   XCENC  =        28.05841874
  PAW double counting   =       505.04606083     -500.52068274
  entropy T*S    EENTRO =        -0.02820948
  eigenvalues    EBANDS =      -161.33709808
  atomic energy  EATOM  =       662.50282877
  Solvation  Ediel_sol  =         0.00000000
  ---------------------------------------------------
  free energy    TOTEN  =        -0.05106049 eV

  energy without entropy =       -0.02285101  energy(sigma->0) =       -0.03695575


--------------------------------------------------------------------------------------------------------




 average (electrostatic) potential at core
  the test charge radii are     1.1097
  (the norm of the test charge is              1.0000)
       1 -44.1967
 
 
 
 E-fermi :  -2.1811     XC(G=0):  -0.4140     alpha+bet : -0.0503

 Fermi energy:        -2.1810878540

 k-point     1 :       0.0000    0.0000    0.0000
  band No.  band energies     occupation 
      1     -31.8410      2.00000
      2     -15.9124      2.00000
      3     -15.9123      2.00000
      4     -15.9123      2.00000
      5      -2.1811      1.00000
      6      -0.6917      0.00000
      7      -0.6913      0.00000
      8      -0.6909      0.00000


--------------------------------------------------------------------------------------------------------


 soft charge-density along one line, spin component           1
         0         1         2         3         4         5         6         7         8         9
 total charge-density along one line
 
 pseudopotential strength for first ion, spin component:           1
 -3.107  -3.801   0.000  -0.000  -0.000   0.000  -0.000  -0.000
 -3.801   0.507   0.000  -0.000  -0.000   0.000  -0.000  -0.000
  0.000   0.000 -11.091  -0.000   0.000 -11.047  -0.000   0.000
 -0.000  -0.000  -0.000 -11.091  -0.000  -0.000 -11.047  -0.000
 -0.000  -0.000   0.000  -0.000 -11.091   0.000  -0.000 -11.047
  0.000   0.000 -11.047  -0.000   0.000 -10.999  -0.000   0.000
 -0.000  -0.000  -0.000 -11.047  -0.000  -0.000 -10.999  -0.000
 -0.000  -0.000   0.000  -0.000 -11.047   0.000  -0.000 -10.999
 -0.000   0.000  -0.000   0.000   0.000  -0.000   0.000   0.000
  0.000  -0.000  -0.000   0.000   0.000  -0.000   0.000   0.000
 -0.000   0.000  -0.000  -0.000   0.000  -0.000  -0.000   0.000
  0.000  -0.000   0.000  -0.000  -0.000   0.000  -0.000  -0.000
  0.000  -0.000  -0.000  -0.000  -0.000  -0.000  -0.000  -0.000
 total augmentation occupancy for first ion, spin component:           1
  2.000  -0.002   0.000  -0.000  -0.000  -0.000   0.000   0.000   0.000   0.000   0.000   0.000  -0.000
 -0.002   0.999  -0.000   0.000   0.000   0.000  -0.000  -0.000  -0.000  -0.000  -0.000   0.000   0.000
  0.000  -0.000   1.989   0.000  -0.000   0.006  -0.000   0.000   0.000  -0.000   0.000  -0.000  -0.000
 -0.000   0.000   0.000   1.989   0.000  -0.000   0.006  -0.000  -0.000   0.000  -0.000   0.000   0.000
 -0.000   0.000  -0.000   0.000   1.989  -0.000   0.000   0.006   0.000  -0.000  -0.000   0.000   0.000
 -0.000   0.000   0.006  -0.000  -0.000   0.000  -0.000   0.000   0.000  -0.000   0.000  -0.000  -0.000
  0.000  -0.000  -0.000   0.006   0.000  -0.000   0.000   0.000  -0.000   0.000  -0.000   0.000   0.000
  0.000  -0.000   0.000  -0.000   0.006   0.000   0.000   0.000   0.000  -0.000  -0.000   0.000   0.000
  0.000  -0.000   0.000  -0.000   0.000   0.000  -0.000   0.000   0.000   0.000   0.000  -0.000  -0.000
  0.000  -0.000  -0.000   0.000  -0.000  -0.000   0.000  -0.000   0.000   0.000   0.000   0.000  -0.000
  0.000  -0.000   0.000  -0.000  -0.000   0.000  -0.000  -0.000   0.000   0.000   0.000  -0.000  -0.000
  0.000   0.000  -0.000   0.000   0.000  -0.000   0.000   0.000  -0.000   0.000  -0.000   0.000   0.000
 -0.000   0.000  -0.000   0.000   0.000  -0.000   0.000   0.000  -0.000  -0.000  -0.000   0.000   0.000


------------------------ aborting loop because EDIFF is reached ----------------------------------------


    CHARGE:  cpu time      0.0225: real time      0.0227
    FORLOC:  cpu time      0.0034: real time      0.0034
    FORNL :  cpu time      0.0014: real time      0.0014
    STRESS:  cpu time      0.0175: real time      0.0176
    FORCOR:  cpu time      0.2309: real time      0.2328
    FORHAR:  cpu time      0.0613: real time      0.0618
    MIXING:  cpu time      0.0057: real time      0.0057
    OFIELD:  cpu time      0.0000: real time      0.0000

  FORCE on cell =-STRESS in cart. coord.  units (eV):
  Direction    XX          YY          ZZ          XY          YZ          ZX
  --------------------------------------------------------------------------------------
  Alpha Z     0.26356     0.26356     0.26356
  Ewald     -29.95941   -30.47281   -30.98507     0.00000     0.00000     0.00000
  Hartree   148.04353   147.54236   147.04181    -0.00011    -0.00001    -0.00004
  E(xc)     -31.48453   -31.48452   -31.48452    -0.00001    -0.00000    -0.00000
  Local    -165.19697  -164.18235  -163.16949     0.00015     0.00002     0.00001
  n-local   -44.82369   -44.82361   -44.82356     0.00002     0.00001    -0.00003
  augment    -1.24045    -1.24043    -1.24041    -0.00000    -0.00000     0.00000
  Kinetic   124.39534   124.39549   124.39552    -0.00003    -0.00004    -0.00005
  Fock        0.00000     0.00000     0.00000     0.00000     0.00000     0.00000
  -------------------------------------------------------------------------------------
  Total      -0.00261    -0.00230    -0.00216     0.00003    -0.00003    -0.00011
  in kB      -0.00071    -0.00062    -0.00058     0.00001    -0.00001    -0.00003
  external pressure =       -0.00 kB  Pullay stress =        0.00 kB


 VOLUME and BASIS-vectors are now :
 -----------------------------------------------------------------------------
  energy-cutoff  :      520.00
  volume of cell :     5929.56
      direct lattice vectors                 reciprocal lattice vectors
    18.000000000  0.000000000  0.000000000     0.055555556 -0.000000000  0.000000000
     0.000000000 18.100000000  0.000000000     0.000000000  0.055248619  0.000000000
     0.000000000  0.000000000 18.200000000    -0.000000000 -0.000000000  0.054945055

  length of vectors
    18.000000000 18.100000000 18.200000000     0.055555556  0.055248619  0.054945055


 FORCES acting on ions
    electron-ion (+dipol)            ewald-force                    non-local-force                 convergence-correction
 -----------------------------------------------------------------------------------------------
   0.957E-03 -.233E-03 -.421E-04   -.317E-17 -.156E-16 -.854E-18   0.183E-03 -.829E-04 -.803E-05   -.112E-02 0.349E-03 0.730E-05
 -----------------------------------------------------------------------------------------------
   0.957E-03 -.233E-03 -.421E-04   -.317E-17 -.156E-16 -.854E-18   0.183E-03 -.829E-04 -.803E-05   -.112E-02 0.349E-03 0.730E-05
 
 
 POSITION                                       TOTAL-FORCE (eV/Angst)
 -----------------------------------------------------------------------------------
      0.00000      0.00000      0.00000         0.000023      0.000032     -0.000043
 -----------------------------------------------------------------------------------
    total drift:                                0.000023      0.000032     -0.000043


--------------------------------------------------------------------------------------------------------



  FREE ENERGIE OF THE ION-ELECTRON SYSTEM (eV)
  ---------------------------------------------------
  free  energy   TOTEN  =        -0.05106049 eV

  energy  without entropy=       -0.02285101  energy(sigma->0) =       -0.03695575
 


--------------------------------------------------------------------------------------------------------


    POTLOK:  cpu time      0.4177: real time      0.4201


--------------------------------------------------------------------------------------------------------


     LOOP+:  cpu time      3.3289: real time      3.3561
    4ORBIT:  cpu time      0.0000: real time      0.0000

 total amount of memory used by VASP MPI-rank0    68233. kBytes
=======================================================================

   base      :      30000. kBytes
   nonl-proj :        297. kBytes
   fftplans  :      14937. kBytes
   grid      :      22836. kBytes
   one-center:          4. kBytes
   wavefun   :        159. kBytes
 
  
  
 General timing and accounting informations for this job:
 ========================================================
  
                  Total CPU time used (sec):        5.688
                            User time (sec):        5.013
                          System time (sec):        0.675
                         Elapsed time (sec):        6.293
  
                   Maximum memory used (kb):      457088.
                   Average memory used (kb):          N/A
  
                          Minor page faults:        44022
                          Major page faults:           35
                 Voluntary context switches:         1137
