 vasp.6.4.2 20Jul23 (build Aug 07 2024 12:45:50) gamma-only                     
  
 executed on             LinuxIFC date 2026.09.30  12:20:16
 running   64 mpi-ranks, on    1 nodes
 distrk:  each k-point on   64 cores,    1 groups
 distr:  one band on NCORE=  32 cores,    2 groups


--------------------------------------------------------------------------------------------------------


 INCAR:
   ALGO = Normal
   EDIFF = 1e-05
   EFERMI = Midgap
   ENCUT = 520.0
   GGA = Pe
   GGA_COMPAT = False
   IBRION = -1
   ISMEAR = 0
   ISPIN = 2
   ISYM = 0
   LAECHG = False
   LASPH = True
   LCHARG = False
   LMAXMIX = 6
   LMIXTAU = True
   LREAL = False
   LWAVE = False
   MAGMOM = 1*5.0
   NCORE = 32
   NELM = 400
   NSW = 0
   PREC = Accurate
   SIGMA = 0.05
   SYSTEM = Nb_atom_ispin2

 POTCAR:    PAW_PBE Nb_pv 08Apr2002               
 -----------------------------------------------------------------------------
|                                                                             |
|           W    W    AA    RRRRR   N    N  II  N    N   GGGG   !!!           |
|           W    W   A  A   R    R  NN   N  II  NN   N  G    G  !!!           |
|           W    W  A    A  R    R  N N  N  II  N N  N  G       !!!           |
|           W WW W  AAAAAA  RRRRR   N  N N  II  N  N N  G  GGG   !            |
|           WW  WW  A    A  R   R   N   NN  II  N   NN  G    G                |
|           W    W  A    A  R    R  N    N  II  N    N   GGGG   !!!           |
|                                                                             |
|     For optimal performance we recommend to set                             |
|       NCORE = 2 up to number-of-cores-per-socket                            |
|     NCORE specifies how many cores store one orbital (NPAR=cpu/NCORE).      |
|     This setting can greatly improve the performance of VASP for DFT.       |
|     The default, NCORE=1 might be grossly inefficient on modern             |
|     multi-core architectures or massively parallel machines. Do your        |
|     own testing! More info at https://www.vasp.at/wiki/index.php/NCORE      |
|     Unfortunately you need to use the default for GW and RPA                |
|     calculations (for HF NCORE is supported but not extensively tested      |
|     yet).                                                                   |
|                                                                             |
 -----------------------------------------------------------------------------

 POTCAR:    PAW_PBE Nb_pv 08Apr2002               
   SHA256 =  bac2b60850b34f8515cf56f9feae68b678e347865051052a0e1f5d2c6a691c0a Nb_pv/POTCAR          
   COPYR  = (c) Copyright 08Apr2002 Georg Kresse                                                    
   COPYR  = This file is part of the software VASP. Any use, copying, and all other rights are regul
   COPYR  = If you do not have a valid VASP license, you may not use, copy or distribute this file. 
   VRHFIN =Nb: 4p5s4d                                                                               
   LEXCH  = PE                                                                                      
   EATOM  =  1043.3917 eV,   76.6871 Ry                                                             
                                                                                                    
   TITEL  = PAW_PBE Nb_pv 08Apr2002                                                                 
   LULTRA =        F    use ultrasoft PP ?                                                          
   IUNSCR =        1    unscreen: 0-lin 1-nonlin 2-no                                               
   RPACOR =    2.200    partial core radius                                                         
   POMASS =   92.000; ZVAL   =   11.000    mass and valenz                                          
   RCORE  =    2.750    outmost cutoff radius                                                       
   RWIGS  =    2.840; RWIGS  =    1.503    wigner-seitz radius (au A)                               
   ENMAX  =  208.608; ENMIN  =  156.456 eV                                                          
   RCLOC  =    2.201    cutoff for local pot                                                        
   LCOR   =        T    correct aug charges                                                         
   LPAW   =        T    paw PP                                                                      
   EAUG   =  355.067                                                                                
   DEXC   =    0.000                                                                                
   RMAX   =    2.804    core radius for proj-oper                                                   
   RAUG   =    1.300    factor for augmentation sphere                                              
   RDEP   =    2.776    radius for radial grids                                                     
   RDEPT  =    2.198    core radius for aug-charge                                                  
                                                                                                    
   Atomic configuration                                                                             
   11 entries                                                                                       
     n  l   j            E        occ.                                                              
     1  0  0.50    -18805.2456   2.0000                                                             
     2  0  0.50     -2630.2869   2.0000                                                             
     2  1  1.50     -2348.4045   6.0000                                                             
     3  0  0.50      -438.8756   2.0000                                                             
     3  1  1.50      -346.7587   6.0000                                                             
     3  2  2.50      -196.2559  10.0000                                                             
     4  0  0.50       -58.3859   2.0000                                                             
     4  1  1.50       -34.5141   6.0000                                                             
     4  2  2.50        -3.0408   4.0000                                                             
     5  0  0.50        -3.9816   1.0000                                                             
     4  3  2.50        -1.3606   0.0000                                                             
   Description                                                                                      
     l       E           TYP  RCUT    TYP  RCUT                                                     
     1    -34.5140617     23  2.600                                                                 
     1     -1.3605826     23  2.600                                                                 
     2     -3.0407924     23  2.600                                                                 
     2     -1.4463597     23  2.600                                                                 
     0     -3.9816219     23  2.750                                                                 
     0     20.4087390     23  2.750                                                                 
  local pseudopotential read in
  partial core-charges read in
  partial kinetic energy density read in
  atomic valenz-charges read in
  non local Contribution for L=           1  read in
    real space projection operators read in
  non local Contribution for L=           1  read in
    real space projection operators read in
  non local Contribution for L=           2  read in
    real space projection operators read in
  non local Contribution for L=           2  read in
    real space projection operators read in
  non local Contribution for L=           0  read in
    real space projection operators read in
  non local Contribution for L=           0  read in
    real space projection operators read in
    PAW grid and wavefunctions read in
 
   number of l-projection  operators is LMAX  =           6
   number of lm-projection operators is LMMAX =          18
 
  PAW_PBE Nb_pv 08Apr2002               :
 energy of atom  1       EATOM=-1043.3917
 kinetic energy error for atom=    0.0011 (will be added to EATOM!!)
 
 
 POSCAR: Nb1
  positions in direct lattice
  No initial velocities read in
 exchange correlation table for  LEXCH =        8
   RHO(1)=    0.500       N(1)  =     2000
   RHO(2)=  100.500       N(2)  =     4000
 


--------------------------------------------------------------------------------------------------------


 ion  position               nearest neighbor table
   1  0.000  0.000  0.000-
 

IMPORTANT INFORMATION: All symmetrisations will be switched off!
NOSYMM: (Re-)initialisation of all symmetry stuff for point group C_1.


----------------------------------------------------------------------------------------

                                     Primitive cell                                     

  volume of cell :    3442.8000

  direct lattice vectors                    reciprocal lattice vectors
    15.000000000  0.000000000  0.000000000     0.066666667 -0.000000000  0.000000000
     0.000000000 15.100000000  0.000000000     0.000000000  0.066225166  0.000000000
     0.000000000  0.000000000 15.200000000    -0.000000000 -0.000000000  0.065789474

  length of vectors
    15.000000000 15.100000000 15.200000000     0.066666667  0.066225166  0.065789474

  position of ions in fractional coordinates (direct lattice)
     0.000000000  0.000000000  0.000000000

  ion indices of the primitive-cell ions
   primitive index   ion index
                 1           1

----------------------------------------------------------------------------------------

 
 
 KPOINTS: Automatic kpoint scheme                 

Automatic generation of k-mesh.
 Grid dimensions read from file:
 generate k-points for:    1    1    1

 Generating k-lattice:

  Cartesian coordinates                     Fractional coordinates (reciprocal lattice)
     0.066666667 -0.000000000  0.000000000     1.000000000 -0.000000000  0.000000000
     0.000000000  0.066225166  0.000000000     0.000000000  1.000000000  0.000000000
    -0.000000000 -0.000000000  0.065789474     0.000000000 -0.000000000  1.000000000

  Length of vectors
     0.066666667  0.066225166  0.065789474

  Shift w.r.t. Gamma in fractional coordinates (k-lattice)
     0.000000000  0.000000000  0.000000000

 
 Subroutine IBZKPT returns following result:
 ===========================================
 
 Found      1 irreducible k-points:
 
 Following reciprocal coordinates:
            Coordinates               Weight
  0.000000  0.000000  0.000000      1.000000
 
 Following cartesian coordinates:
            Coordinates               Weight
  0.000000  0.000000  0.000000      1.000000
 


--------------------------------------------------------------------------------------------------------




 Dimension of arrays:
   k-points           NKPTS =      1   k-points in BZ     NKDIM =      1   number of bands    NBANDS=     12
   number of dos      NEDOS =    301   number of ions     NIONS =      1
   non local maximal  LDIM  =      6   non local SUM 2l+1 LMDIM =     18
   total plane-waves  NPLWV = ******
   max r-space proj   IRMAX =      1   max aug-charges    IRDMAX=  27115
   dimension x,y,z NGX =   112 NGY =  112 NGZ =  120
   dimension x,y,z NGXF=   224 NGYF=  224 NGZF=  240
   support grid    NGXF=   224 NGYF=  224 NGZF=  240
   ions per type =               1
   NGX,Y,Z   is equivalent  to a cutoff of  12.41, 12.33, 13.12 a.u.
   NGXF,Y,Z  is equivalent  to a cutoff of  24.83, 24.66, 26.25 a.u.

 SYSTEM =  Nb_atom_ispin2                          
 POSCAR =  Nb1                                     

 Startparameter for this run:
   NWRITE =      2    write-flag & timer
   PREC   = accura    normal or accurate (medium, high low for compatibility)
   ISTART =      0    job   : 0-new  1-cont  2-samecut
   ICHARG =      2    charge: 1-file 2-atom 10-const
   ISPIN  =      2    spin polarized calculation?
   LNONCOLLINEAR =      F non collinear calculations
   LSORBIT =      F    spin-orbit coupling
   INIWAV =      1    electr: 0-lowe 1-rand  2-diag
   LASPH  =      T    aspherical Exc in radial PAW
 Electronic Relaxation 1
   ENCUT  =  520.0 eV  38.22 Ry    6.18 a.u.  27.89 28.08 28.26*2*pi/ulx,y,z
   ENINI  =  520.0     initial cutoff
   ENAUG  =  355.1 eV  augmentation charge cutoff
   NELM   =    400;   NELMIN=  2; NELMDL= -5     # of ELM steps 
   EDIFF  = 0.1E-04   stopping-criterion for ELM
   LREAL  =      F    real-space projection
   NLSPLINE    = F    spline interpolate recip. space projectors
   LCOMPAT=      F    compatible to vasp.4.4
   GGA_COMPAT  = F    GGA compatible to vasp.4.4-vasp.4.6
   LMAXPAW     = -100 max onsite density
   LMAXMIX     =    6 max onsite mixed and CHGCAR
   VOSKOWN=      0    Vosko Wilk Nusair interpolation
   ROPT   =    0.00000
 Ionic relaxation
   EDIFFG = 0.1E-03   stopping-criterion for IOM
   NSW    =      0    number of steps for IOM
   NBLOCK =      1;   KBLOCK =      1    inner block; outer block 
   IBRION =     -1    ionic relax: 0-MD 1-quasi-New 2-CG
   NFREE  =      0    steps in history (QN), initial steepest desc. (CG)
   ISIF   =      2    stress and relaxation
   IWAVPR =     10    prediction:  0-non 1-charg 2-wave 3-comb
   ISYM   =      0    0-nonsym 1-usesym 2-fastsym
   LCORR  =      T    Harris-Foulkes like correction to forces

   POTIM  = 0.5000    time-step for ionic-motion
   TEIN   =    0.0    initial temperature
   TEBEG  =    0.0;   TEEND  =   0.0 temperature during run
   SMASS  =  -3.00    Nose mass-parameter (am)
   estimated Nose-frequenzy (Omega)   =  0.10E-29 period in steps = 0.13E+47 mass=  -0.514E-26a.u.
   SCALEE = 1.0000    scale energy and forces
   NPACO  =    256;   APACO  = 10.0  distance and # of slots for P.C.
   PSTRESS=    0.0 pullay stress

  Mass of Ions in am
   POMASS =  92.00
  Ionic Valenz
   ZVAL   =  11.00
  Atomic Wigner-Seitz radii
   RWIGS  =  -1.00
  virtual crystal weights 
   VCA    =   1.00
   NELECT =      11.0000    total number of electrons
   NUPDOWN=      -1.0000    fix difference up-down

 DOS related values:
   EMIN   =  10.00;   EMAX   =-10.00  energy-range for DOS
   EFERMI =   0.00;   METHOD = MIDGAP      
   ISMEAR =     0;   SIGMA  =   0.05  broadening in eV -4-tet -1-fermi 0-gaus

 Electronic relaxation 2 (details)
   IALGO  =     38    algorithm
   LDIAG  =      T    sub-space diagonalisation (order eigenvalues)
   LSUBROT=      F    optimize rotation matrix (better conditioning)
   TURBO    =      0    0=normal 1=particle mesh
   IRESTART =      0    0=no restart 2=restart with 2 vectors
   NREBOOT  =      0    no. of reboots
   NMIN     =      0    reboot dimension
   EREF     =   0.00    reference energy to select bands
   IMIX   =      4    mixing-type and parameters
     AMIX     =   0.40;   BMIX     =  1.00
     AMIX_MAG =   1.60;   BMIX_MAG =  1.00
     AMIN     =   0.10
     WC   =   100.;   INIMIX=   1;  MIXPRE=   1;  MAXMIX= -45

 Intra band minimization:
   WEIMIN = 0.0000     energy-eigenvalue tresh-hold
   EBREAK =  0.21E-06  absolut break condition
   DEPER  =   0.30     relativ break condition  

   TIME   =   0.40     timestep for ELM

  volume/ion in A,a.u.               =    3442.80     23233.16
  Fermi-wavevector in a.u.,A,eV,Ry     =   0.241121  0.455653  0.791034  0.058139
  Thomas-Fermi vector in A             =   1.047060
 
 Write flags
   LWAVE        =      F    write WAVECAR
   LDOWNSAMPLE  =      F    k-point downsampling of WAVECAR
   LCHARG       =      F    write CHGCAR
   LVTOT        =      F    write LOCPOT, total local potential
   LVHAR        =      F    write LOCPOT, Hartree potential only
   LELF         =      F    write electronic localiz. function (ELF)
   LORBIT       =      0    0 simple, 1 ext, 2 COOP (PROOUT), +10 PAW based schemes


 Dipole corrections
   LMONO  =      F    monopole corrections only (constant potential shift)
   LDIPOL =      F    correct potential (dipole corrections)
   IDIPOL =      0    1-x, 2-y, 3-z, 4-all directions 
   EPSILON=  1.0000000 bulk dielectric constant

 Exchange correlation treatment:
   GGA     =    PE    GGA type
   LEXCH   =     8    internal setting for exchange type
   LIBXC   =     F    Libxc                    
   VOSKOWN =     0    Vosko Wilk Nusair interpolation
   LHFCALC =     F    Hartree Fock is set to
   LHFONE  =     F    Hartree Fock one center treatment
   AEXX    =    0.0000 exact exchange contribution

 Linear response parameters
   LEPSILON=     F    determine dielectric tensor
   LRPA    =     F    only Hartree local field effects (RPA)
   LNABLA  =     F    use nabla operator in PAW spheres
   LVEL    =     F    velocity operator in full k-point grid
   CSHIFT  =0.1000    complex shift for real part using Kramers Kronig
   OMEGAMAX=  -1.0    maximum frequency
   DEG_THRESHOLD= 0.2000000E-02 threshold for treating states as degnerate
   RTIME   =   -0.100 relaxation time in fs
  (WPLASMAI=    0.000 imaginary part of plasma frequency in eV, 0.658/RTIME)
   DFIELD  = 0.0000000 0.0000000 0.0000000 field for delta impulse in time
 
  Optional k-point grid parameters
   LKPOINTS_OPT  =     F    use optional k-point grid
   KPOINTS_OPT_MODE=     1    mode for optional k-point grid
 
 Orbital magnetization related:
   ORBITALMAG=     F  switch on orbital magnetization
   LCHIMAG   =     F  perturbation theory with respect to B field
   DQ        =  0.001000  dq finite difference perturbation B field
   LLRAUG    =     F  two centre corrections for induced B field
   LBONE     =     F  B-component reconstruction in AE one-centre
   LVGVCALC  =     T  calculate vGv susceptibility
   LVGVAPPL  =     F  apply vGv susceptibility instead of pGv for G=0

 Random number generation:
   RANDOM_GENERATOR = DEFAULT
   PCG_SEED         = not used


--------------------------------------------------------------------------------------------------------


 Static calculation
 charge density and potential will be updated during run
 spin polarized calculation
 Variant of blocked Davidson
 Davidson routine will perform the subspace rotation
 perform sub-space diagonalisation
    after iterative eigenvector-optimisation
 modified Broyden-mixing scheme, WC =      100.0
 initial mixing is a Kerker type mixing with AMIX =  0.4000 and BMIX =      1.0000
 Hartree-type preconditioning will be used
 using additional bands            6
 reciprocal scheme for non local part
 use partial core corrections
 calculate Harris-corrections to forces 
   (improved forces if not selfconsistent)
 use gradient corrections 
 use of overlap-Matrix (Vanderbilt PP)
 Gauss-broadening in eV      SIGMA  =   0.05


--------------------------------------------------------------------------------------------------------


  energy-cutoff  :      520.00
  volume of cell :     3442.80
      direct lattice vectors                 reciprocal lattice vectors
    15.000000000  0.000000000  0.000000000     0.066666667 -0.000000000  0.000000000
     0.000000000 15.100000000  0.000000000     0.000000000  0.066225166  0.000000000
     0.000000000  0.000000000 15.200000000    -0.000000000 -0.000000000  0.065789474

  length of vectors
    15.000000000 15.100000000 15.200000000     0.066666667  0.066225166  0.065789474


 
 k-points in units of 2pi/SCALE and weight: Automatic kpoint scheme                 
   0.00000000  0.00000000  0.00000000       1.000
 
 k-points in reciprocal lattice and weights: Automatic kpoint scheme                 
   0.00000000  0.00000000  0.00000000       1.000
 
 position of ions in fractional coordinates (direct lattice) 
   0.00000000  0.00000000  0.00000000
 
 position of ions in cartesian coordinates  (Angst):
   0.00000000  0.00000000  0.00000000
 


--------------------------------------------------------------------------------------------------------


 use parallel FFT for orbitals z direction half grid
 k-point   1 :   0.0000 0.0000 0.0000  plane waves:   46338

 maximum and minimum number of plane-waves per node :      1457     1434

 maximum number of plane-waves:     46338
 maximum index in each direction: 
   IXMAX=   27   IYMAX=   28   IZMAX=   28
   IXMIN=  -27   IYMIN=  -28   IZMIN=    0


 parallel 3D FFT for wavefunctions:
    minimum data exchange during FFTs selected (reduces bandwidth)
 parallel 3D FFT for charge:
    minimum data exchange during FFTs selected (reduces bandwidth)


 total amount of memory used by VASP MPI-rank0    58583. kBytes
=======================================================================

   base      :      30000. kBytes
   nonl-proj :        233. kBytes
   fftplans  :       8156. kBytes
   grid      :      19898. kBytes
   one-center:         15. kBytes
   wavefun   :        281. kBytes
 
     INWAV:  cpu time      0.0000: real time      0.0000
 Broyden mixing: mesh for mixing (old mesh)
   NGX = 55   NGY = 57   NGZ = 57
  (NGX  =224   NGY  =224   NGZ  =240)
  gives a total of 178695 points

 initial charge density was supplied:
 charge density of overlapping atoms calculated
 number of electron      11.0000000 magnetization       5.0000000
 keeping initial charge density in first step


--------------------------------------------------------------------------------------------------------


 Maximum index for augmentation-charges         1085 (set IRDMAX)


--------------------------------------------------------------------------------------------------------


 First call to EWALD:  gamma=   0.117
 Maximum number of real-space cells 3x 3x 3
 Maximum number of reciprocal cells 3x 3x 3

    FEWALD:  cpu time      0.0011: real time      0.0011


--------------------------------------- Ionic step        1  -------------------------------------------




--------------------------------------- Iteration      1(   1)  ---------------------------------------


    POTLOK:  cpu time      0.3341: real time      0.3371
    SETDIJ:  cpu time      0.4537: real time      0.4562
     EDDAV:  cpu time      0.0796: real time      0.0819
       DOS:  cpu time      0.0003: real time      0.0003
    --------------------------------------------
      LOOP:  cpu time      0.8678: real time      0.8756

 eigenvalue-minimisations  :    48
 total energy-change (2. order) : 0.2153107E+03  (-0.1565317E+03)
 number of electron      11.0000000 magnetization       5.0000000
 augmentation part       11.0000000 magnetization       5.0000000

 Free energy of the ion-electron system (eV)
  ---------------------------------------------------
  alpha Z        PSCENC =         0.65747155
  Ewald energy   TEWEN  =      -163.69159634
  -Hartree energ DENC   =      -696.92852856
  -exchange      EXHF   =         0.00000000
  -V(xc)+E(xc)   XCENC  =        24.92756815
  PAW double counting   =       833.84378493     -817.90756437
  entropy T*S    EENTRO =        -0.00000004
  eigenvalues    EBANDS =        -8.98106011
  atomic energy  EATOM  =      1043.39062137
  Solvation  Ediel_sol  =         0.00000000
  ---------------------------------------------------
  free energy    TOTEN  =       215.31069657 eV

  energy without entropy =      215.31069661  energy(sigma->0) =      215.31069659


--------------------------------------------------------------------------------------------------------




--------------------------------------- Iteration      1(   2)  ---------------------------------------


     EDDAV:  cpu time      0.0854: real time      0.0871
       DOS:  cpu time      0.0003: real time      0.0003
    --------------------------------------------
      LOOP:  cpu time      0.0856: real time      0.0874

 eigenvalue-minimisations  :    72
 total energy-change (2. order) :-0.1911642E+03  (-0.1856309E+03)
 number of electron      11.0000000 magnetization       5.0000000
 augmentation part       11.0000000 magnetization       5.0000000

 Free energy of the ion-electron system (eV)
  ---------------------------------------------------
  alpha Z        PSCENC =         0.65747155
  Ewald energy   TEWEN  =      -163.69159634
  -Hartree energ DENC   =      -696.92852856
  -exchange      EXHF   =         0.00000000
  -V(xc)+E(xc)   XCENC  =        24.92756815
  PAW double counting   =       833.84378493     -817.90756437
  entropy T*S    EENTRO =        -0.00000071
  eigenvalues    EBANDS =      -200.14522128
  atomic energy  EATOM  =      1043.39062137
  Solvation  Ediel_sol  =         0.00000000
  ---------------------------------------------------
  free energy    TOTEN  =        24.14653472 eV

  energy without entropy =       24.14653544  energy(sigma->0) =       24.14653508


--------------------------------------------------------------------------------------------------------




--------------------------------------- Iteration      1(   3)  ---------------------------------------


     EDDAV:  cpu time      0.0741: real time      0.0749
       DOS:  cpu time      0.0003: real time      0.0003
    --------------------------------------------
      LOOP:  cpu time      0.0745: real time      0.0752

 eigenvalue-minimisations  :    64
 total energy-change (2. order) :-0.2065581E+02  (-0.1861449E+02)
 number of electron      11.0000000 magnetization       5.0000000
 augmentation part       11.0000000 magnetization       5.0000000

 Free energy of the ion-electron system (eV)
  ---------------------------------------------------
  alpha Z        PSCENC =         0.65747155
  Ewald energy   TEWEN  =      -163.69159634
  -Hartree energ DENC   =      -696.92852856
  -exchange      EXHF   =         0.00000000
  -V(xc)+E(xc)   XCENC  =        24.92756815
  PAW double counting   =       833.84378493     -817.90756437
  entropy T*S    EENTRO =        -0.02043713
  eigenvalues    EBANDS =      -220.78059272
  atomic energy  EATOM  =      1043.39062137
  Solvation  Ediel_sol  =         0.00000000
  ---------------------------------------------------
  free energy    TOTEN  =         3.49072687 eV

  energy without entropy =        3.51116400  energy(sigma->0) =        3.50094544


--------------------------------------------------------------------------------------------------------




--------------------------------------- Iteration      1(   4)  ---------------------------------------


     EDDAV:  cpu time      0.1012: real time      0.1025
       DOS:  cpu time      0.0002: real time      0.0002
    --------------------------------------------
      LOOP:  cpu time      0.1014: real time      0.1027

 eigenvalue-minimisations  :    96
 total energy-change (2. order) :-0.4585076E+01  (-0.3700930E+01)
 number of electron      11.0000000 magnetization       5.0000000
 augmentation part       11.0000000 magnetization       5.0000000

 Free energy of the ion-electron system (eV)
  ---------------------------------------------------
  alpha Z        PSCENC =         0.65747155
  Ewald energy   TEWEN  =      -163.69159634
  -Hartree energ DENC   =      -696.92852856
  -exchange      EXHF   =         0.00000000
  -V(xc)+E(xc)   XCENC  =        24.92756815
  PAW double counting   =       833.84378493     -817.90756437
  entropy T*S    EENTRO =        -0.00666046
  eigenvalues    EBANDS =      -225.37944558
  atomic energy  EATOM  =      1043.39062137
  Solvation  Ediel_sol  =         0.00000000
  ---------------------------------------------------
  free energy    TOTEN  =        -1.09434932 eV

  energy without entropy =       -1.08768886  energy(sigma->0) =       -1.09101909


--------------------------------------------------------------------------------------------------------




--------------------------------------- Iteration      1(   5)  ---------------------------------------


     EDDAV:  cpu time      0.0906: real time      0.0915
       DOS:  cpu time      0.0003: real time      0.0003
    CHARGE:  cpu time      0.0260: real time      0.0263
    MIXING:  cpu time      0.0049: real time      0.0050
    --------------------------------------------
      LOOP:  cpu time      0.1218: real time      0.1231

 eigenvalue-minimisations  :    80
 total energy-change (2. order) :-0.9768758E+00  (-0.8875205E+00)
 number of electron      11.0000003 magnetization       5.0000000
 augmentation part        4.1905391 magnetization       0.9757614

 Broyden mixing:
  rms(total) = 0.91493E+00    rms(broyden)= 0.91493E+00
  rms(prec ) = 0.91948E+00
  weight for this iteration     100.00

 Free energy of the ion-electron system (eV)
  ---------------------------------------------------
  alpha Z        PSCENC =         0.65747155
  Ewald energy   TEWEN  =      -163.69159634
  -Hartree energ DENC   =      -696.92852856
  -exchange      EXHF   =         0.00000000
  -V(xc)+E(xc)   XCENC  =        24.92756815
  PAW double counting   =       833.84378493     -817.90756437
  entropy T*S    EENTRO =        -0.03450339
  eigenvalues    EBANDS =      -226.32847845
  atomic energy  EATOM  =      1043.39062137
  Solvation  Ediel_sol  =         0.00000000
  ---------------------------------------------------
  free energy    TOTEN  =        -2.07122512 eV

  energy without entropy =       -2.03672173  energy(sigma->0) =       -2.05397343


--------------------------------------------------------------------------------------------------------




--------------------------------------- Iteration      1(   6)  ---------------------------------------


    POTLOK:  cpu time      0.3639: real time      0.3661
    SETDIJ:  cpu time      0.4549: real time      0.4570
     EDDAV:  cpu time      0.0745: real time      0.0752
       DOS:  cpu time      0.0003: real time      0.0003
    CHARGE:  cpu time      0.0247: real time      0.0251
    MIXING:  cpu time      0.0046: real time      0.0046
    --------------------------------------------
      LOOP:  cpu time      0.9229: real time      0.9283

 eigenvalue-minimisations  :    56
 total energy-change (2. order) : 0.4702158E+01  (-0.1141698E+01)
 number of electron      11.0000002 magnetization       5.0000000
 augmentation part        4.2033075 magnetization       0.7321921

 Broyden mixing:
  rms(total) = 0.36284E+00    rms(broyden)= 0.36284E+00
  rms(prec ) = 0.37547E+00
  weight for this iteration     100.00

 eigenvalues of (default mixing * dielectric matrix)
  average eigenvalue GAMMA=   0.7841
  0.7841

 Free energy of the ion-electron system (eV)
  ---------------------------------------------------
  alpha Z        PSCENC =         0.65747155
  Ewald energy   TEWEN  =      -163.69159634
  -Hartree energ DENC   =      -701.39528425
  -exchange      EXHF   =         0.00000000
  -V(xc)+E(xc)   XCENC  =        28.81151154
  PAW double counting   =       832.17116660     -816.02447450
  entropy T*S    EENTRO =        -0.00253928
  eigenvalues    EBANDS =      -221.28594431
  atomic energy  EATOM  =      1043.39062137
  Solvation  Ediel_sol  =         0.00000000
  ---------------------------------------------------
  free energy    TOTEN  =         2.63093239 eV

  energy without entropy =        2.63347167  energy(sigma->0) =        2.63220203


--------------------------------------------------------------------------------------------------------




--------------------------------------- Iteration      1(   7)  ---------------------------------------


    POTLOK:  cpu time      0.4344: real time      0.4367
    SETDIJ:  cpu time      0.4562: real time      0.4583
     EDDAV:  cpu time      0.0707: real time      0.0713
       DOS:  cpu time      0.0003: real time      0.0003
    CHARGE:  cpu time      0.0243: real time      0.0246
    MIXING:  cpu time      0.0072: real time      0.0072
    --------------------------------------------
      LOOP:  cpu time      0.9931: real time      0.9985

 eigenvalue-minimisations  :    56
 total energy-change (2. order) :-0.3631492E+01  (-0.2179994E+00)
 number of electron      11.0000002 magnetization       5.0000000
 augmentation part        4.1303510 magnetization       0.7974979

 Broyden mixing:
  rms(total) = 0.17944E+00    rms(broyden)= 0.17944E+00
  rms(prec ) = 0.19299E+00
  weight for this iteration     100.00

 eigenvalues of (default mixing * dielectric matrix)
  average eigenvalue GAMMA=   0.8068
  0.8068  0.8068

 Free energy of the ion-electron system (eV)
  ---------------------------------------------------
  alpha Z        PSCENC =         0.65747155
  Ewald energy   TEWEN  =      -163.69159634
  -Hartree energ DENC   =      -703.20989833
  -exchange      EXHF   =         0.00000000
  -V(xc)+E(xc)   XCENC  =        26.38618617
  PAW double counting   =       847.30634378     -831.28146365
  entropy T*S    EENTRO =        -0.00035779
  eigenvalues    EBANDS =      -220.55786685
  atomic energy  EATOM  =      1043.39062137
  Solvation  Ediel_sol  =         0.00000000
  ---------------------------------------------------
  free energy    TOTEN  =        -1.00056010 eV

  energy without entropy =       -1.00020231  energy(sigma->0) =       -1.00038120


--------------------------------------------------------------------------------------------------------




--------------------------------------- Iteration      1(   8)  ---------------------------------------


    POTLOK:  cpu time      0.3956: real time      0.3979
    SETDIJ:  cpu time      0.4564: real time      0.4584
     EDDAV:  cpu time      0.0823: real time      0.0830
       DOS:  cpu time      0.0003: real time      0.0003
    CHARGE:  cpu time      0.0234: real time      0.0237
    MIXING:  cpu time      0.0044: real time      0.0045
    --------------------------------------------
      LOOP:  cpu time      0.9624: real time      0.9679

 eigenvalue-minimisations  :    72
 total energy-change (2. order) :-0.7702145E+00  (-0.2079120E-01)
 number of electron      11.0000003 magnetization       5.0000000
 augmentation part        4.1262520 magnetization       0.8083084

 Broyden mixing:
  rms(total) = 0.17986E+00    rms(broyden)= 0.17986E+00
  rms(prec ) = 0.19148E+00
  weight for this iteration     100.00

 eigenvalues of (default mixing * dielectric matrix)
  average eigenvalue GAMMA=   0.6222
  0.7831  0.7831  0.3004

 Free energy of the ion-electron system (eV)
  ---------------------------------------------------
  alpha Z        PSCENC =         0.65747155
  Ewald energy   TEWEN  =      -163.69159634
  -Hartree energ DENC   =      -702.94947218
  -exchange      EXHF   =         0.00000000
  -V(xc)+E(xc)   XCENC  =        25.77834884
  PAW double counting   =       861.18840104     -845.23689699
  entropy T*S    EENTRO =        -0.00456016
  eigenvalues    EBANDS =      -220.90309174
  atomic energy  EATOM  =      1043.39062137
  Solvation  Ediel_sol  =         0.00000000
  ---------------------------------------------------
  free energy    TOTEN  =        -1.77077461 eV

  energy without entropy =       -1.76621446  energy(sigma->0) =       -1.76849454


--------------------------------------------------------------------------------------------------------




--------------------------------------- Iteration      1(   9)  ---------------------------------------


    POTLOK:  cpu time      0.3241: real time      0.3263
    SETDIJ:  cpu time      0.4561: real time      0.4582
     EDDAV:  cpu time      0.0940: real time      0.0949
       DOS:  cpu time      0.0003: real time      0.0003
    CHARGE:  cpu time      0.0229: real time      0.0231
    MIXING:  cpu time      0.0049: real time      0.0049
    --------------------------------------------
      LOOP:  cpu time      0.9023: real time      0.9079

 eigenvalue-minimisations  :    88
 total energy-change (2. order) :-0.3964516E+00  (-0.1575296E-01)
 number of electron      11.0000003 magnetization       5.0000000
 augmentation part        4.1229661 magnetization       0.8148459

 Broyden mixing:
  rms(total) = 0.24980E+00    rms(broyden)= 0.24980E+00
  rms(prec ) = 0.26603E+00
  weight for this iteration     100.00

 eigenvalues of (default mixing * dielectric matrix)
  average eigenvalue GAMMA=   0.6570
  0.7671  0.7671  0.5470  0.5470

 Free energy of the ion-electron system (eV)
  ---------------------------------------------------
  alpha Z        PSCENC =         0.65747155
  Ewald energy   TEWEN  =      -163.69159634
  -Hartree energ DENC   =      -702.81138916
  -exchange      EXHF   =         0.00000000
  -V(xc)+E(xc)   XCENC  =        25.50138050
  PAW double counting   =       863.13076995     -847.19691706
  entropy T*S    EENTRO =        -0.00220000
  eigenvalues    EBANDS =      -221.14536704
  atomic energy  EATOM  =      1043.39062137
  Solvation  Ediel_sol  =         0.00000000
  ---------------------------------------------------
  free energy    TOTEN  =        -2.16722623 eV

  energy without entropy =       -2.16502623  energy(sigma->0) =       -2.16612623


--------------------------------------------------------------------------------------------------------




--------------------------------------- Iteration      1(  10)  ---------------------------------------


    POTLOK:  cpu time      0.3431: real time      0.3452
    SETDIJ:  cpu time      0.4580: real time      0.4601
     EDDAV:  cpu time      0.0776: real time      0.0784
       DOS:  cpu time      0.0003: real time      0.0003
    CHARGE:  cpu time      0.0239: real time      0.0241
    MIXING:  cpu time      0.0058: real time      0.0058
    --------------------------------------------
      LOOP:  cpu time      0.9086: real time      0.9139

 eigenvalue-minimisations  :    64
 total energy-change (2. order) : 0.1040418E+00  (-0.6747408E-02)
 number of electron      11.0000003 magnetization       5.0000000
 augmentation part        4.1229685 magnetization       0.8126275

 Broyden mixing:
  rms(total) = 0.23066E+00    rms(broyden)= 0.23066E+00
  rms(prec ) = 0.24608E+00
  weight for this iteration     100.00

 eigenvalues of (default mixing * dielectric matrix)
  average eigenvalue GAMMA=   0.7601
  0.8750  0.8750  0.7896  0.7896  0.4714

 Free energy of the ion-electron system (eV)
  ---------------------------------------------------
  alpha Z        PSCENC =         0.65747155
  Ewald energy   TEWEN  =      -163.69159634
  -Hartree energ DENC   =      -702.85732226
  -exchange      EXHF   =         0.00000000
  -V(xc)+E(xc)   XCENC  =        25.57007870
  PAW double counting   =       859.35894225     -843.40502602
  entropy T*S    EENTRO =        -0.00605338
  eigenvalues    EBANDS =      -221.08030026
  atomic energy  EATOM  =      1043.39062137
  Solvation  Ediel_sol  =         0.00000000
  ---------------------------------------------------
  free energy    TOTEN  =        -2.06318441 eV

  energy without entropy =       -2.05713102  energy(sigma->0) =       -2.06015772


--------------------------------------------------------------------------------------------------------




--------------------------------------- Iteration      1(  11)  ---------------------------------------


    POTLOK:  cpu time      0.3356: real time      0.3373
    SETDIJ:  cpu time      0.4570: real time      0.4591
     EDDAV:  cpu time      0.0918: real time      0.0926
       DOS:  cpu time      0.0004: real time      0.0004
    CHARGE:  cpu time      0.0246: real time      0.0249
    MIXING:  cpu time      0.0050: real time      0.0051
    --------------------------------------------
      LOOP:  cpu time      0.9144: real time      0.9194

 eigenvalue-minimisations  :    84
 total energy-change (2. order) : 0.1242199E-01  (-0.1105806E-02)
 number of electron      11.0000003 magnetization       5.0000000
 augmentation part        4.1228947 magnetization       0.8123574

 Broyden mixing:
  rms(total) = 0.19480E+00    rms(broyden)= 0.19480E+00
  rms(prec ) = 0.20882E+00
  weight for this iteration     100.00

 eigenvalues of (default mixing * dielectric matrix)
  average eigenvalue GAMMA=   0.8407
  1.1103  1.1103  0.7672  0.7672  0.6445  0.6445

 Free energy of the ion-electron system (eV)
  ---------------------------------------------------
  alpha Z        PSCENC =         0.65747155
  Ewald energy   TEWEN  =      -163.69159634
  -Hartree energ DENC   =      -702.83863166
  -exchange      EXHF   =         0.00000000
  -V(xc)+E(xc)   XCENC  =        25.57358444
  PAW double counting   =       858.87050868     -842.91509535
  entropy T*S    EENTRO =        -0.00742141
  eigenvalues    EBANDS =      -221.09020368
  atomic energy  EATOM  =      1043.39062137
  Solvation  Ediel_sol  =         0.00000000
  ---------------------------------------------------
  free energy    TOTEN  =        -2.05076242 eV

  energy without entropy =       -2.04334101  energy(sigma->0) =       -2.04705171


--------------------------------------------------------------------------------------------------------




--------------------------------------- Iteration      1(  12)  ---------------------------------------


    POTLOK:  cpu time      0.4257: real time      0.4284
    SETDIJ:  cpu time      0.4546: real time      0.4598
     EDDAV:  cpu time      0.0780: real time      0.0787
       DOS:  cpu time      0.0003: real time      0.0003
    CHARGE:  cpu time      0.0250: real time      0.0253
    MIXING:  cpu time      0.0053: real time      0.0053
    --------------------------------------------
      LOOP:  cpu time      0.9890: real time      0.9979

 eigenvalue-minimisations  :    64
 total energy-change (2. order) :-0.4520316E-01  (-0.1293801E-02)
 number of electron      11.0000003 magnetization       5.0000000
 augmentation part        4.1232087 magnetization       0.8137678

 Broyden mixing:
  rms(total) = 0.14873E+00    rms(broyden)= 0.14873E+00
  rms(prec ) = 0.16118E+00
  weight for this iteration     100.00

 eigenvalues of (default mixing * dielectric matrix)
  average eigenvalue GAMMA=   0.9616
  1.0234  1.0234  1.2110  1.2110  0.8218  0.8218  0.6190

 Free energy of the ion-electron system (eV)
  ---------------------------------------------------
  alpha Z        PSCENC =         0.65747155
  Ewald energy   TEWEN  =      -163.69159634
  -Hartree energ DENC   =      -702.75971282
  -exchange      EXHF   =         0.00000000
  -V(xc)+E(xc)   XCENC  =        25.52981959
  PAW double counting   =       859.55112055     -843.60330918
  entropy T*S    EENTRO =        -0.00661831
  eigenvalues    EBANDS =      -221.16376199
  atomic energy  EATOM  =      1043.39062137
  Solvation  Ediel_sol  =         0.00000000
  ---------------------------------------------------
  free energy    TOTEN  =        -2.09596558 eV

  energy without entropy =       -2.08934727  energy(sigma->0) =       -2.09265643


--------------------------------------------------------------------------------------------------------




--------------------------------------- Iteration      1(  13)  ---------------------------------------


    POTLOK:  cpu time      0.3580: real time      0.3602
    SETDIJ:  cpu time      0.4567: real time      0.4588
     EDDAV:  cpu time      0.0887: real time      0.0895
       DOS:  cpu time      0.0003: real time      0.0004
    CHARGE:  cpu time      0.0237: real time      0.0240
    MIXING:  cpu time      0.0052: real time      0.0053
    --------------------------------------------
      LOOP:  cpu time      0.9328: real time      0.9383

 eigenvalue-minimisations  :    80
 total energy-change (2. order) :-0.2846180E+00  (-0.1018859E-01)
 number of electron      11.0000003 magnetization       5.0000000
 augmentation part        4.1220459 magnetization       0.8215222

 Broyden mixing:
  rms(total) = 0.14391E+00    rms(broyden)= 0.14390E+00
  rms(prec ) = 0.14980E+00
  weight for this iteration     100.00

 eigenvalues of (default mixing * dielectric matrix)
  average eigenvalue GAMMA=   0.9148
  0.9816  0.9816  1.0188  1.0188  0.9951  0.9951  0.6113  0.7159

 Free energy of the ion-electron system (eV)
  ---------------------------------------------------
  alpha Z        PSCENC =         0.65747155
  Ewald energy   TEWEN  =      -163.69159634
  -Hartree energ DENC   =      -702.59219721
  -exchange      EXHF   =         0.00000000
  -V(xc)+E(xc)   XCENC  =        25.31783570
  PAW double counting   =       863.55807714     -847.64863784
  entropy T*S    EENTRO =        -0.02335319
  eigenvalues    EBANDS =      -221.34880470
  atomic energy  EATOM  =      1043.39062137
  Solvation  Ediel_sol  =         0.00000000
  ---------------------------------------------------
  free energy    TOTEN  =        -2.38058354 eV

  energy without entropy =       -2.35723034  energy(sigma->0) =       -2.36890694


--------------------------------------------------------------------------------------------------------




--------------------------------------- Iteration      1(  14)  ---------------------------------------


    POTLOK:  cpu time      0.4080: real time      0.4105
    SETDIJ:  cpu time      0.4555: real time      0.4576
     EDDAV:  cpu time      0.0717: real time      0.0724
       DOS:  cpu time      0.0003: real time      0.0004
    CHARGE:  cpu time      0.0254: real time      0.0260
    MIXING:  cpu time      0.0055: real time      0.0056
    --------------------------------------------
      LOOP:  cpu time      0.9664: real time      0.9724

 eigenvalue-minimisations  :    56
 total energy-change (2. order) :-0.4733954E+00  (-0.1894630E-01)
 number of electron      11.0000002 magnetization       5.0000000
 augmentation part        4.1166344 magnetization       0.8331670

 Broyden mixing:
  rms(total) = 0.26063E+00    rms(broyden)= 0.26063E+00
  rms(prec ) = 0.27533E+00
  weight for this iteration     100.00

 eigenvalues of (default mixing * dielectric matrix)
  average eigenvalue GAMMA=   0.8242
  0.9927  0.9927  0.8647  0.8647  1.0129  1.0129  0.6980  0.5422  0.4368

 Free energy of the ion-electron system (eV)
  ---------------------------------------------------
  alpha Z        PSCENC =         0.65747155
  Ewald energy   TEWEN  =      -163.69159634
  -Hartree energ DENC   =      -702.36516599
  -exchange      EXHF   =         0.00000000
  -V(xc)+E(xc)   XCENC  =        24.97307157
  PAW double counting   =       868.74189119     -852.86901911
  entropy T*S    EENTRO =        -0.02753815
  eigenvalues    EBANDS =      -221.66371505
  atomic energy  EATOM  =      1043.39062137
  Solvation  Ediel_sol  =         0.00000000
  ---------------------------------------------------
  free energy    TOTEN  =        -2.85397896 eV

  energy without entropy =       -2.82644081  energy(sigma->0) =       -2.84020988


--------------------------------------------------------------------------------------------------------




--------------------------------------- Iteration      1(  15)  ---------------------------------------


    POTLOK:  cpu time      0.4044: real time      0.4069
    SETDIJ:  cpu time      0.4553: real time      0.4575
     EDDAV:  cpu time      0.0883: real time      0.0891
       DOS:  cpu time      0.0003: real time      0.0004
    CHARGE:  cpu time      0.0234: real time      0.0237
    MIXING:  cpu time      0.0054: real time      0.0055
    --------------------------------------------
      LOOP:  cpu time      0.9771: real time      0.9831

 eigenvalue-minimisations  :    80
 total energy-change (2. order) :-0.1426167E-01  (-0.1829762E-02)
 number of electron      11.0000002 magnetization       5.0000000
 augmentation part        4.1177592 magnetization       0.8331855

 Broyden mixing:
  rms(total) = 0.21471E+00    rms(broyden)= 0.21471E+00
  rms(prec ) = 0.22679E+00
  weight for this iteration     100.00

 eigenvalues of (default mixing * dielectric matrix)
  average eigenvalue GAMMA=   0.8198
  1.1254  1.1254  0.6694  0.6694  1.0013  1.0013  0.6928  0.5985  0.6572  0.6572

 Free energy of the ion-electron system (eV)
  ---------------------------------------------------
  alpha Z        PSCENC =         0.65747155
  Ewald energy   TEWEN  =      -163.69159634
  -Hartree energ DENC   =      -702.30713455
  -exchange      EXHF   =         0.00000000
  -V(xc)+E(xc)   XCENC  =        24.95151667
  PAW double counting   =       869.06628417     -853.19361975
  entropy T*S    EENTRO =        -0.02677530
  eigenvalues    EBANDS =      -221.71500844
  atomic energy  EATOM  =      1043.39062137
  Solvation  Ediel_sol  =         0.00000000
  ---------------------------------------------------
  free energy    TOTEN  =        -2.86824062 eV

  energy without entropy =       -2.84146533  energy(sigma->0) =       -2.85485298


--------------------------------------------------------------------------------------------------------




--------------------------------------- Iteration      1(  16)  ---------------------------------------


    POTLOK:  cpu time      0.4083: real time      0.4106
    SETDIJ:  cpu time      0.4550: real time      0.4571
     EDDAV:  cpu time      0.0926: real time      0.0935
       DOS:  cpu time      0.0004: real time      0.0004
    CHARGE:  cpu time      0.0237: real time      0.0241
    MIXING:  cpu time      0.0057: real time      0.0057
    --------------------------------------------
      LOOP:  cpu time      0.9857: real time      0.9914

 eigenvalue-minimisations  :    88
 total energy-change (2. order) :-0.1894921E-02  (-0.1791037E-04)
 number of electron      11.0000002 magnetization       5.0000000
 augmentation part        4.1177949 magnetization       0.8332617

 Broyden mixing:
  rms(total) = 0.21244E+00    rms(broyden)= 0.21244E+00
  rms(prec ) = 0.22442E+00
  weight for this iteration     100.00

 eigenvalues of (default mixing * dielectric matrix)
  average eigenvalue GAMMA=   0.9052
  1.2856  1.2856  0.7668  0.7668  0.9363  0.9363  1.0093  1.0093  0.6938  0.6335
  0.6335

 Free energy of the ion-electron system (eV)
  ---------------------------------------------------
  alpha Z        PSCENC =         0.65747155
  Ewald energy   TEWEN  =      -163.69159634
  -Hartree energ DENC   =      -702.30594372
  -exchange      EXHF   =         0.00000000
  -V(xc)+E(xc)   XCENC  =        24.94987803
  PAW double counting   =       869.08519882     -853.21268604
  entropy T*S    EENTRO =        -0.02673474
  eigenvalues    EBANDS =      -221.71634447
  atomic energy  EATOM  =      1043.39062137
  Solvation  Ediel_sol  =         0.00000000
  ---------------------------------------------------
  free energy    TOTEN  =        -2.87013555 eV

  energy without entropy =       -2.84340080  energy(sigma->0) =       -2.85676817


--------------------------------------------------------------------------------------------------------




--------------------------------------- Iteration      1(  17)  ---------------------------------------


    POTLOK:  cpu time      0.3966: real time      0.3989
    SETDIJ:  cpu time      0.4550: real time      0.4571
     EDDAV:  cpu time      0.0859: real time      0.0867
       DOS:  cpu time      0.0004: real time      0.0004
    CHARGE:  cpu time      0.0240: real time      0.0243
    MIXING:  cpu time      0.0057: real time      0.0058
    --------------------------------------------
      LOOP:  cpu time      0.9676: real time      0.9731

 eigenvalue-minimisations  :    76
 total energy-change (2. order) :-0.4632409E-02  (-0.1378512E-02)
 number of electron      11.0000003 magnetization       5.0000000
 augmentation part        4.1172490 magnetization       0.8327356

 Broyden mixing:
  rms(total) = 0.13712E+00    rms(broyden)= 0.13712E+00
  rms(prec ) = 0.14514E+00
  weight for this iteration     100.00

 eigenvalues of (default mixing * dielectric matrix)
  average eigenvalue GAMMA=   0.9780
  1.4317  1.4317  0.8171  0.8171  1.1805  1.1805  1.1402  1.1402  0.6743  0.6743
  0.6718  0.5763

 Free energy of the ion-electron system (eV)
  ---------------------------------------------------
  alpha Z        PSCENC =         0.65747155
  Ewald energy   TEWEN  =      -163.69159634
  -Hartree energ DENC   =      -702.31470182
  -exchange      EXHF   =         0.00000000
  -V(xc)+E(xc)   XCENC  =        24.93829119
  PAW double counting   =       868.32324833     -852.44720913
  entropy T*S    EENTRO =        -0.02783141
  eigenvalues    EBANDS =      -221.70306169
  atomic energy  EATOM  =      1043.39062137
  Solvation  Ediel_sol  =         0.00000000
  ---------------------------------------------------
  free energy    TOTEN  =        -2.87476795 eV

  energy without entropy =       -2.84693655  energy(sigma->0) =       -2.86085225


--------------------------------------------------------------------------------------------------------




--------------------------------------- Iteration      1(  18)  ---------------------------------------


    POTLOK:  cpu time      0.3947: real time      0.3971
    SETDIJ:  cpu time      0.4554: real time      0.4575
     EDDAV:  cpu time      0.0742: real time      0.0749
       DOS:  cpu time      0.0003: real time      0.0003
    CHARGE:  cpu time      0.0257: real time      0.0261
    MIXING:  cpu time      0.0059: real time      0.0059
    --------------------------------------------
      LOOP:  cpu time      0.9563: real time      0.9618

 eigenvalue-minimisations  :    56
 total energy-change (2. order) :-0.7194227E-01  (-0.3172581E-02)
 number of electron      11.0000002 magnetization       5.0000000
 augmentation part        4.1181768 magnetization       0.8363036

 Broyden mixing:
  rms(total) = 0.81804E-01    rms(broyden)= 0.81803E-01
  rms(prec ) = 0.86279E-01
  weight for this iteration     100.00

 eigenvalues of (default mixing * dielectric matrix)
  average eigenvalue GAMMA=   0.9783
  1.4816  1.4816  0.8148  0.8148  0.9942  0.9942  1.2906  1.2906  0.7913  0.7913
  0.7491  0.6121  0.6121

 Free energy of the ion-electron system (eV)
  ---------------------------------------------------
  alpha Z        PSCENC =         0.65747155
  Ewald energy   TEWEN  =      -163.69159634
  -Hartree energ DENC   =      -702.13682801
  -exchange      EXHF   =         0.00000000
  -V(xc)+E(xc)   XCENC  =        24.87304420
  PAW double counting   =       869.67593806     -853.81498102
  entropy T*S    EENTRO =        -0.02813023
  eigenvalues    EBANDS =      -221.87224980
  atomic energy  EATOM  =      1043.39062137
  Solvation  Ediel_sol  =         0.00000000
  ---------------------------------------------------
  free energy    TOTEN  =        -2.94671022 eV

  energy without entropy =       -2.91857999  energy(sigma->0) =       -2.93264511


--------------------------------------------------------------------------------------------------------




--------------------------------------- Iteration      1(  19)  ---------------------------------------


    POTLOK:  cpu time      0.3448: real time      0.3472
    SETDIJ:  cpu time      0.4551: real time      0.4572
     EDDAV:  cpu time      0.0711: real time      0.0718
       DOS:  cpu time      0.0003: real time      0.0003
    CHARGE:  cpu time      0.0237: real time      0.0241
    MIXING:  cpu time      0.0062: real time      0.0062
    --------------------------------------------
      LOOP:  cpu time      0.9013: real time      0.9068

 eigenvalue-minimisations  :    56
 total energy-change (2. order) :-0.1391796E+00  (-0.6136115E-02)
 number of electron      11.0000002 magnetization       5.0000000
 augmentation part        4.1174500 magnetization       0.8415397

 Broyden mixing:
  rms(total) = 0.61537E-01    rms(broyden)= 0.61536E-01
  rms(prec ) = 0.65207E-01
  weight for this iteration     100.00

 eigenvalues of (default mixing * dielectric matrix)
  average eigenvalue GAMMA=   0.9842
  1.4773  1.4773  0.8115  0.8115  1.3929  1.3929  0.9578  0.9578  0.9262  0.9262
  0.7439  0.6523  0.6523  0.5987

 Free energy of the ion-electron system (eV)
  ---------------------------------------------------
  alpha Z        PSCENC =         0.65747155
  Ewald energy   TEWEN  =      -163.69159634
  -Hartree energ DENC   =      -702.10070898
  -exchange      EXHF   =         0.00000000
  -V(xc)+E(xc)   XCENC  =        24.77460232
  PAW double counting   =       871.69830509     -855.85718010
  entropy T*S    EENTRO =        -0.02790293
  eigenvalues    EBANDS =      -221.92950179
  atomic energy  EATOM  =      1043.39062137
  Solvation  Ediel_sol  =         0.00000000
  ---------------------------------------------------
  free energy    TOTEN  =        -3.08588981 eV

  energy without entropy =       -3.05798688  energy(sigma->0) =       -3.07193834


--------------------------------------------------------------------------------------------------------




--------------------------------------- Iteration      1(  20)  ---------------------------------------


    POTLOK:  cpu time      0.3466: real time      0.3496
    SETDIJ:  cpu time      0.4550: real time      0.4571
     EDDAV:  cpu time      0.0892: real time      0.0900
       DOS:  cpu time      0.0004: real time      0.0004
    CHARGE:  cpu time      0.0265: real time      0.0267
    MIXING:  cpu time      0.0066: real time      0.0067
    --------------------------------------------
      LOOP:  cpu time      0.9243: real time      0.9305

 eigenvalue-minimisations  :    76
 total energy-change (2. order) :-0.2105146E-01  (-0.1125420E-02)
 number of electron      11.0000002 magnetization       5.0000000
 augmentation part        4.1173540 magnetization       0.8418474

 Broyden mixing:
  rms(total) = 0.53662E-01    rms(broyden)= 0.53662E-01
  rms(prec ) = 0.56949E-01
  weight for this iteration     100.00

 eigenvalues of (default mixing * dielectric matrix)
  average eigenvalue GAMMA=   1.0264
  1.4716  1.4716  1.7119  1.7119  0.8106  0.8106  1.0155  1.0155  1.0550  1.0550
  0.7299  0.6739  0.6529  0.6049  0.6049

 Free energy of the ion-electron system (eV)
  ---------------------------------------------------
  alpha Z        PSCENC =         0.65747155
  Ewald energy   TEWEN  =      -163.69159634
  -Hartree energ DENC   =      -702.17149439
  -exchange      EXHF   =         0.00000000
  -V(xc)+E(xc)   XCENC  =        24.76099468
  PAW double counting   =       870.98780307     -855.14649079
  entropy T*S    EENTRO =        -0.02784524
  eigenvalues    EBANDS =      -221.86640517
  atomic energy  EATOM  =      1043.39062137
  Solvation  Ediel_sol  =         0.00000000
  ---------------------------------------------------
  free energy    TOTEN  =        -3.10694127 eV

  energy without entropy =       -3.07909603  energy(sigma->0) =       -3.09301865


--------------------------------------------------------------------------------------------------------




--------------------------------------- Iteration      1(  21)  ---------------------------------------


    POTLOK:  cpu time      0.3184: real time      0.3206
    SETDIJ:  cpu time      0.4553: real time      0.4575
     EDDAV:  cpu time      0.0707: real time      0.0714
       DOS:  cpu time      0.0002: real time      0.0002
    CHARGE:  cpu time      0.0238: real time      0.0240
    MIXING:  cpu time      0.0065: real time      0.0066
    --------------------------------------------
      LOOP:  cpu time      0.8749: real time      0.8803

 eigenvalue-minimisations  :    56
 total energy-change (2. order) :-0.8009788E-02  (-0.5564233E-03)
 number of electron      11.0000002 magnetization       5.0000000
 augmentation part        4.1173344 magnetization       0.8421172

 Broyden mixing:
  rms(total) = 0.41373E-01    rms(broyden)= 0.41372E-01
  rms(prec ) = 0.43959E-01
  weight for this iteration     100.00

 eigenvalues of (default mixing * dielectric matrix)
  average eigenvalue GAMMA=   1.0359
  1.4686  1.4686  1.8188  1.8188  0.8104  0.8104  1.0609  1.0609  1.1224  1.1224
  0.7049  0.7049  0.7446  0.6471  0.6471  0.5632

 Free energy of the ion-electron system (eV)
  ---------------------------------------------------
  alpha Z        PSCENC =         0.65747155
  Ewald energy   TEWEN  =      -163.69159634
  -Hartree energ DENC   =      -702.24647928
  -exchange      EXHF   =         0.00000000
  -V(xc)+E(xc)   XCENC  =        24.75830307
  PAW double counting   =       870.05300677     -854.21073494
  entropy T*S    EENTRO =        -0.02799101
  eigenvalues    EBANDS =      -221.79755226
  atomic energy  EATOM  =      1043.39062137
  Solvation  Ediel_sol  =         0.00000000
  ---------------------------------------------------
  free energy    TOTEN  =        -3.11495106 eV

  energy without entropy =       -3.08696005  energy(sigma->0) =       -3.10095556


--------------------------------------------------------------------------------------------------------




--------------------------------------- Iteration      1(  22)  ---------------------------------------


    POTLOK:  cpu time      0.3186: real time      0.3207
    SETDIJ:  cpu time      0.4560: real time      0.4583
     EDDAV:  cpu time      0.0882: real time      0.0890
       DOS:  cpu time      0.0002: real time      0.0002
    CHARGE:  cpu time      0.0240: real time      0.0243
    MIXING:  cpu time      0.0067: real time      0.0068
    --------------------------------------------
      LOOP:  cpu time      0.8937: real time      0.8993

 eigenvalue-minimisations  :    80
 total energy-change (2. order) :-0.1759151E-01  (-0.2604520E-03)
 number of electron      11.0000002 magnetization       5.0000000
 augmentation part        4.1173495 magnetization       0.8427953

 Broyden mixing:
  rms(total) = 0.40593E-01    rms(broyden)= 0.40593E-01
  rms(prec ) = 0.43099E-01
  weight for this iteration     100.00

 eigenvalues of (default mixing * dielectric matrix)
  average eigenvalue GAMMA=   1.0806
  2.2279  2.2279  1.4729  1.4729  0.8106  0.8106  1.0720  1.0720  1.0654  1.0654
  0.8541  0.8541  0.7421  0.7421  0.6297  0.6297  0.6210

 Free energy of the ion-electron system (eV)
  ---------------------------------------------------
  alpha Z        PSCENC =         0.65747155
  Ewald energy   TEWEN  =      -163.69159634
  -Hartree energ DENC   =      -702.26866358
  -exchange      EXHF   =         0.00000000
  -V(xc)+E(xc)   XCENC  =        24.74635175
  PAW double counting   =       869.84240200     -854.00188369
  entropy T*S    EENTRO =        -0.02802815
  eigenvalues    EBANDS =      -221.77921748
  atomic energy  EATOM  =      1043.39062137
  Solvation  Ediel_sol  =         0.00000000
  ---------------------------------------------------
  free energy    TOTEN  =        -3.13254257 eV

  energy without entropy =       -3.10451442  energy(sigma->0) =       -3.11852849


--------------------------------------------------------------------------------------------------------




--------------------------------------- Iteration      1(  23)  ---------------------------------------


    POTLOK:  cpu time      0.3233: real time      0.3255
    SETDIJ:  cpu time      0.4546: real time      0.4575
     EDDAV:  cpu time      0.0720: real time      0.0728
       DOS:  cpu time      0.0002: real time      0.0002
    CHARGE:  cpu time      0.0261: real time      0.0262
    MIXING:  cpu time      0.0069: real time      0.0070
    --------------------------------------------
      LOOP:  cpu time      0.8830: real time      0.8892

 eigenvalue-minimisations  :    56
 total energy-change (2. order) :-0.1885743E-01  (-0.5945874E-03)
 number of electron      11.0000003 magnetization       5.0000000
 augmentation part        4.1174299 magnetization       0.8435259

 Broyden mixing:
  rms(total) = 0.14920E-01    rms(broyden)= 0.14920E-01
  rms(prec ) = 0.15889E-01
  weight for this iteration     100.00

 eigenvalues of (default mixing * dielectric matrix)
  average eigenvalue GAMMA=   1.0915
  2.4045  2.4045  1.4736  1.4736  0.8106  0.8106  1.0716  1.0716  1.0152  1.0152
  0.9924  0.9924  0.7553  0.7553  0.7329  0.6539  0.6065  0.6065

 Free energy of the ion-electron system (eV)
  ---------------------------------------------------
  alpha Z        PSCENC =         0.65747155
  Ewald energy   TEWEN  =      -163.69159634
  -Hartree energ DENC   =      -702.31062931
  -exchange      EXHF   =         0.00000000
  -V(xc)+E(xc)   XCENC  =        24.73339792
  PAW double counting   =       869.00452947     -853.16416141
  entropy T*S    EENTRO =        -0.02818890
  eigenvalues    EBANDS =      -221.74284434
  atomic energy  EATOM  =      1043.39062137
  Solvation  Ediel_sol  =         0.00000000
  ---------------------------------------------------
  free energy    TOTEN  =        -3.15140000 eV

  energy without entropy =       -3.12321110  energy(sigma->0) =       -3.13730555


--------------------------------------------------------------------------------------------------------




--------------------------------------- Iteration      1(  24)  ---------------------------------------


    POTLOK:  cpu time      0.3212: real time      0.3237
    SETDIJ:  cpu time      0.4553: real time      0.4575
     EDDAV:  cpu time      0.0734: real time      0.0742
       DOS:  cpu time      0.0002: real time      0.0002
    CHARGE:  cpu time      0.0251: real time      0.0257
    MIXING:  cpu time      0.0071: real time      0.0071
    --------------------------------------------
      LOOP:  cpu time      0.8823: real time      0.8884

 eigenvalue-minimisations  :    56
 total energy-change (2. order) :-0.1351117E-01  (-0.3509028E-03)
 number of electron      11.0000003 magnetization       5.0000000
 augmentation part        4.1175206 magnetization       0.8441463

 Broyden mixing:
  rms(total) = 0.10384E-01    rms(broyden)= 0.10384E-01
  rms(prec ) = 0.11021E-01
  weight for this iteration     100.00

 eigenvalues of (default mixing * dielectric matrix)
  average eigenvalue GAMMA=   1.1167
  2.5590  2.5590  1.4729  1.4729  0.8107  0.8107  1.0723  1.0723  1.1566  1.1566
  1.1023  1.1023  0.8036  0.8036  0.7457  0.6390  0.6390  0.6195  0.6195

 Free energy of the ion-electron system (eV)
  ---------------------------------------------------
  alpha Z        PSCENC =         0.65747155
  Ewald energy   TEWEN  =      -163.69159634
  -Hartree energ DENC   =      -702.35421945
  -exchange      EXHF   =         0.00000000
  -V(xc)+E(xc)   XCENC  =        24.72515310
  PAW double counting   =       868.54139569     -852.70273708
  entropy T*S    EENTRO =        -0.02820744
  eigenvalues    EBANDS =      -221.70279256
  atomic energy  EATOM  =      1043.39062137
  Solvation  Ediel_sol  =         0.00000000
  ---------------------------------------------------
  free energy    TOTEN  =        -3.16491117 eV

  energy without entropy =       -3.13670373  energy(sigma->0) =       -3.15080745


--------------------------------------------------------------------------------------------------------




--------------------------------------- Iteration      1(  25)  ---------------------------------------


    POTLOK:  cpu time      0.3187: real time      0.3211
    SETDIJ:  cpu time      0.4551: real time      0.4573
     EDDAV:  cpu time      0.0711: real time      0.0719
       DOS:  cpu time      0.0002: real time      0.0002
    CHARGE:  cpu time      0.0238: real time      0.0240
    MIXING:  cpu time      0.0074: real time      0.0074
    --------------------------------------------
      LOOP:  cpu time      0.8763: real time      0.8819

 eigenvalue-minimisations  :    56
 total energy-change (2. order) :-0.6901269E-02  (-0.9839419E-04)
 number of electron      11.0000003 magnetization       5.0000000
 augmentation part        4.1174564 magnetization       0.8444865

 Broyden mixing:
  rms(total) = 0.14377E-01    rms(broyden)= 0.14377E-01
  rms(prec ) = 0.15193E-01
  weight for this iteration     100.00

 eigenvalues of (default mixing * dielectric matrix)
  average eigenvalue GAMMA=   1.1192
  2.5484  2.5484  1.4736  1.4736  0.8107  0.8107  1.0758  1.0758  1.1761  1.1761
  1.3152  1.3152  0.7702  0.7702  0.7466  0.7466  0.6694  0.6694  0.6062  0.6062

 Free energy of the ion-electron system (eV)
  ---------------------------------------------------
  alpha Z        PSCENC =         0.65747155
  Ewald energy   TEWEN  =      -163.69159634
  -Hartree energ DENC   =      -702.37175629
  -exchange      EXHF   =         0.00000000
  -V(xc)+E(xc)   XCENC  =        24.72044654
  PAW double counting   =       868.45882090     -852.62084871
  entropy T*S    EENTRO =        -0.02820763
  eigenvalues    EBANDS =      -221.68676383
  atomic energy  EATOM  =      1043.39062137
  Solvation  Ediel_sol  =         0.00000000
  ---------------------------------------------------
  free energy    TOTEN  =        -3.17181244 eV

  energy without entropy =       -3.14360480  energy(sigma->0) =       -3.15770862


--------------------------------------------------------------------------------------------------------




--------------------------------------- Iteration      1(  26)  ---------------------------------------


    POTLOK:  cpu time      0.4236: real time      0.4266
    SETDIJ:  cpu time      0.4550: real time      0.4573
     EDDAV:  cpu time      0.0645: real time      0.0651
       DOS:  cpu time      0.0002: real time      0.0002
    CHARGE:  cpu time      0.0244: real time      0.0247
    MIXING:  cpu time      0.0074: real time      0.0075
    --------------------------------------------
      LOOP:  cpu time      0.9751: real time      0.9814

 eigenvalue-minimisations  :    48
 total energy-change (2. order) :-0.3661216E-02  (-0.5549797E-04)
 number of electron      11.0000003 magnetization       5.0000000
 augmentation part        4.1175211 magnetization       0.8446546

 Broyden mixing:
  rms(total) = 0.37727E-02    rms(broyden)= 0.37727E-02
  rms(prec ) = 0.41458E-02
  weight for this iteration     100.00

 eigenvalues of (default mixing * dielectric matrix)
  average eigenvalue GAMMA=   1.1295
  2.5542  2.5542  1.4738  1.4738  0.8106  0.8106  1.0761  1.0761  1.1738  1.1738
  1.4458  1.4458  1.0484  0.7837  0.7837  0.7729  0.7084  0.7084  0.6120  0.6120
  0.6217

 Free energy of the ion-electron system (eV)
  ---------------------------------------------------
  alpha Z        PSCENC =         0.65747155
  Ewald energy   TEWEN  =      -163.69159634
  -Hartree energ DENC   =      -702.36966289
  -exchange      EXHF   =         0.00000000
  -V(xc)+E(xc)   XCENC  =        24.71675384
  PAW double counting   =       868.39701240     -852.55932303
  entropy T*S    EENTRO =        -0.02820839
  eigenvalues    EBANDS =      -221.68854216
  atomic energy  EATOM  =      1043.39062137
  Solvation  Ediel_sol  =         0.00000000
  ---------------------------------------------------
  free energy    TOTEN  =        -3.17547366 eV

  energy without entropy =       -3.14726527  energy(sigma->0) =       -3.16136946


--------------------------------------------------------------------------------------------------------




--------------------------------------- Iteration      1(  27)  ---------------------------------------


    POTLOK:  cpu time      0.3207: real time      0.3202
    SETDIJ:  cpu time      0.4553: real time      0.4575
     EDDAV:  cpu time      0.0693: real time      0.0698
       DOS:  cpu time      0.0002: real time      0.0002
    CHARGE:  cpu time      0.0250: real time      0.0253
    MIXING:  cpu time      0.0075: real time      0.0075
    --------------------------------------------
      LOOP:  cpu time      0.8780: real time      0.8806

 eigenvalue-minimisations  :    56
 total energy-change (2. order) :-0.2542171E-02  (-0.2246999E-04)
 number of electron      11.0000003 magnetization       5.0000000
 augmentation part        4.1175831 magnetization       0.8447995

 Broyden mixing:
  rms(total) = 0.35447E-02    rms(broyden)= 0.35447E-02
  rms(prec ) = 0.38548E-02
  weight for this iteration     100.00

 eigenvalues of (default mixing * dielectric matrix)
  average eigenvalue GAMMA=   1.1223
  2.6155  2.6155  1.4737  1.4737  0.8106  0.8106  1.0761  1.0761  1.4747  1.4747
  1.1835  1.1835  1.0755  0.7943  0.7943  0.7322  0.7322  0.7377  0.7377  0.6040
  0.6040  0.6101

 Free energy of the ion-electron system (eV)
  ---------------------------------------------------
  alpha Z        PSCENC =         0.65747155
  Ewald energy   TEWEN  =      -163.69159634
  -Hartree energ DENC   =      -702.38281079
  -exchange      EXHF   =         0.00000000
  -V(xc)+E(xc)   XCENC  =        24.71482158
  PAW double counting   =       868.29961622     -852.46197786
  entropy T*S    EENTRO =        -0.02820849
  eigenvalues    EBANDS =      -221.67595306
  atomic energy  EATOM  =      1043.39062137
  Solvation  Ediel_sol  =         0.00000000
  ---------------------------------------------------
  free energy    TOTEN  =        -3.17801583 eV

  energy without entropy =       -3.14980733  energy(sigma->0) =       -3.16391158


--------------------------------------------------------------------------------------------------------




--------------------------------------- Iteration      1(  28)  ---------------------------------------


    POTLOK:  cpu time      0.3407: real time      0.3430
    SETDIJ:  cpu time      0.4549: real time      0.4570
     EDDAV:  cpu time      0.0671: real time      0.0677
       DOS:  cpu time      0.0002: real time      0.0002
    CHARGE:  cpu time      0.0259: real time      0.0263
    MIXING:  cpu time      0.0077: real time      0.0077
    --------------------------------------------
      LOOP:  cpu time      0.8965: real time      0.9021

 eigenvalue-minimisations  :    48
 total energy-change (2. order) :-0.1022284E-02  (-0.3563669E-05)
 number of electron      11.0000003 magnetization       5.0000000
 augmentation part        4.1175383 magnetization       0.8447994

 Broyden mixing:
  rms(total) = 0.13724E-02    rms(broyden)= 0.13724E-02
  rms(prec ) = 0.16758E-02
  weight for this iteration     100.00

 eigenvalues of (default mixing * dielectric matrix)
  average eigenvalue GAMMA=   1.1260
  2.6309  2.6309  1.4737  1.4737  0.8106  0.8106  1.0759  1.0759  1.5245  1.5245
  1.1726  1.1726  1.2108  0.9667  0.7964  0.7964  0.7865  0.7865  0.6718  0.6718
  0.6077  0.6077  0.6194

 Free energy of the ion-electron system (eV)
  ---------------------------------------------------
  alpha Z        PSCENC =         0.65747155
  Ewald energy   TEWEN  =      -163.69159634
  -Hartree energ DENC   =      -702.40022440
  -exchange      EXHF   =         0.00000000
  -V(xc)+E(xc)   XCENC  =        24.71449861
  PAW double counting   =       868.25211208     -852.41414354
  entropy T*S    EENTRO =        -0.02820930
  eigenvalues    EBANDS =      -221.65956813
  atomic energy  EATOM  =      1043.39062137
  Solvation  Ediel_sol  =         0.00000000
  ---------------------------------------------------
  free energy    TOTEN  =        -3.17903811 eV

  energy without entropy =       -3.15082881  energy(sigma->0) =       -3.16493346


--------------------------------------------------------------------------------------------------------




--------------------------------------- Iteration      1(  29)  ---------------------------------------


    POTLOK:  cpu time      0.3241: real time      0.3267
    SETDIJ:  cpu time      0.4557: real time      0.4579
     EDDAV:  cpu time      0.0600: real time      0.0609
       DOS:  cpu time      0.0004: real time      0.0004
    CHARGE:  cpu time      0.0265: real time      0.0269
    MIXING:  cpu time      0.0079: real time      0.0080
    --------------------------------------------
      LOOP:  cpu time      0.8747: real time      0.8807

 eigenvalue-minimisations  :    40
 total energy-change (2. order) :-0.1591518E-02  (-0.5586265E-05)
 number of electron      11.0000003 magnetization       5.0000000
 augmentation part        4.1174983 magnetization       0.8448468

 Broyden mixing:
  rms(total) = 0.17910E-02    rms(broyden)= 0.17910E-02
  rms(prec ) = 0.20066E-02
  weight for this iteration     100.00

 eigenvalues of (default mixing * dielectric matrix)
  average eigenvalue GAMMA=   1.1088
  2.6049  2.6049  1.4737  1.4737  0.8107  0.8107  1.0759  1.0759  1.5836  1.5836
  1.1670  1.1670  1.1285  1.1285  0.8186  0.8186  0.7491  0.7491  0.6934  0.6934
  0.6041  0.6041  0.5967  0.5967

 Free energy of the ion-electron system (eV)
  ---------------------------------------------------
  alpha Z        PSCENC =         0.65747155
  Ewald energy   TEWEN  =      -163.69159634
  -Hartree energ DENC   =      -702.42036432
  -exchange      EXHF   =         0.00000000
  -V(xc)+E(xc)   XCENC  =        24.71368155
  PAW double counting   =       868.20918770     -852.37094814
  entropy T*S    EENTRO =        -0.02820933
  eigenvalues    EBANDS =      -221.64047366
  atomic energy  EATOM  =      1043.39062137
  Solvation  Ediel_sol  =         0.00000000
  ---------------------------------------------------
  free energy    TOTEN  =        -3.18062963 eV

  energy without entropy =       -3.15242029  energy(sigma->0) =       -3.16652496


--------------------------------------------------------------------------------------------------------




--------------------------------------- Iteration      1(  30)  ---------------------------------------


    POTLOK:  cpu time      0.3164: real time      0.3188
    SETDIJ:  cpu time      0.4552: real time      0.4573
     EDDAV:  cpu time      0.0656: real time      0.0663
       DOS:  cpu time      0.0002: real time      0.0002
    CHARGE:  cpu time      0.0261: real time      0.0264
    MIXING:  cpu time      0.0082: real time      0.0083
    --------------------------------------------
      LOOP:  cpu time      0.8717: real time      0.8773

 eigenvalue-minimisations  :    48
 total energy-change (2. order) :-0.1228525E-02  (-0.3802558E-05)
 number of electron      11.0000003 magnetization       5.0000000
 augmentation part        4.1174842 magnetization       0.8448813

 Broyden mixing:
  rms(total) = 0.70210E-03    rms(broyden)= 0.70209E-03
  rms(prec ) = 0.92540E-03
  weight for this iteration     100.00

 eigenvalues of (default mixing * dielectric matrix)
  average eigenvalue GAMMA=   1.0939
  2.6042  2.6042  1.4737  1.4737  0.8107  0.8107  1.6590  1.6590  1.0759  1.0759
  1.1657  1.1657  1.0449  1.0449  0.9192  0.9192  0.7527  0.7527  0.7477  0.6466
  0.6466  0.6286  0.6041  0.5315  0.5315

 Free energy of the ion-electron system (eV)
  ---------------------------------------------------
  alpha Z        PSCENC =         0.65747155
  Ewald energy   TEWEN  =      -163.69159634
  -Hartree energ DENC   =      -702.43722885
  -exchange      EXHF   =         0.00000000
  -V(xc)+E(xc)   XCENC  =        24.71304446
  PAW double counting   =       868.17214578     -852.33367213
  entropy T*S    EENTRO =        -0.02820947
  eigenvalues    EBANDS =      -221.62443450
  atomic energy  EATOM  =      1043.39062137
  Solvation  Ediel_sol  =         0.00000000
  ---------------------------------------------------
  free energy    TOTEN  =        -3.18185815 eV

  energy without entropy =       -3.15364868  energy(sigma->0) =       -3.16775342


--------------------------------------------------------------------------------------------------------




--------------------------------------- Iteration      1(  31)  ---------------------------------------


    POTLOK:  cpu time      0.4258: real time      0.4283
    SETDIJ:  cpu time      0.4557: real time      0.4579
     EDDAV:  cpu time      0.0604: real time      0.0611
       DOS:  cpu time      0.0004: real time      0.0004
    CHARGE:  cpu time      0.0250: real time      0.0254
    MIXING:  cpu time      0.0081: real time      0.0082
    --------------------------------------------
      LOOP:  cpu time      0.9755: real time      0.9812

 eigenvalue-minimisations  :    40
 total energy-change (2. order) :-0.5980102E-03  (-0.1030171E-05)
 number of electron      11.0000003 magnetization       5.0000000
 augmentation part        4.1174721 magnetization       0.8448871

 Broyden mixing:
  rms(total) = 0.61720E-03    rms(broyden)= 0.61720E-03
  rms(prec ) = 0.81801E-03
  weight for this iteration     100.00

 eigenvalues of (default mixing * dielectric matrix)
  average eigenvalue GAMMA=   1.0953
  2.6016  2.6016  1.4737  1.4737  1.7929  1.7929  0.8106  0.8106  1.0759  1.0759
  1.1641  1.1641  1.0312  1.0312  1.0504  1.0504  0.7665  0.7665  0.7539  0.6879
  0.6879  0.6518  0.5986  0.5986  0.5346  0.4316

 Free energy of the ion-electron system (eV)
  ---------------------------------------------------
  alpha Z        PSCENC =         0.65747155
  Ewald energy   TEWEN  =      -163.69159634
  -Hartree energ DENC   =      -702.44643721
  -exchange      EXHF   =         0.00000000
  -V(xc)+E(xc)   XCENC  =        24.71274652
  PAW double counting   =       868.14469459     -852.30605285
  entropy T*S    EENTRO =        -0.02820946
  eigenvalues    EBANDS =      -221.61569434
  atomic energy  EATOM  =      1043.39062137
  Solvation  Ediel_sol  =         0.00000000
  ---------------------------------------------------
  free energy    TOTEN  =        -3.18245616 eV

  energy without entropy =       -3.15424670  energy(sigma->0) =       -3.16835143


--------------------------------------------------------------------------------------------------------




--------------------------------------- Iteration      1(  32)  ---------------------------------------


    POTLOK:  cpu time      0.3244: real time      0.3269
    SETDIJ:  cpu time      0.4552: real time      0.4574
     EDDAV:  cpu time      0.0653: real time      0.0660
       DOS:  cpu time      0.0002: real time      0.0002
    CHARGE:  cpu time      0.0248: real time      0.0251
    MIXING:  cpu time      0.0084: real time      0.0084
    --------------------------------------------
      LOOP:  cpu time      0.8783: real time      0.8840

 eigenvalue-minimisations  :    48
 total energy-change (2. order) :-0.5823136E-03  (-0.1041924E-05)
 number of electron      11.0000003 magnetization       5.0000000
 augmentation part        4.1174610 magnetization       0.8448967

 Broyden mixing:
  rms(total) = 0.99515E-03    rms(broyden)= 0.99515E-03
  rms(prec ) = 0.11268E-02
  weight for this iteration     100.00

 eigenvalues of (default mixing * dielectric matrix)
  average eigenvalue GAMMA=   1.1200
  2.6092  2.6092  1.4737  1.4737  2.0753  2.0753  0.8106  0.8106  1.0759  1.0759
  1.1664  1.1664  1.2279  1.2279  1.0780  1.0780  0.7865  0.7865  0.7788  0.7788
  0.6770  0.6770  0.6090  0.6090  0.6140  0.5193  0.3686

 Free energy of the ion-electron system (eV)
  ---------------------------------------------------
  alpha Z        PSCENC =         0.65747155
  Ewald energy   TEWEN  =      -163.69159634
  -Hartree energ DENC   =      -702.45628965
  -exchange      EXHF   =         0.00000000
  -V(xc)+E(xc)   XCENC  =        24.71245728
  PAW double counting   =       868.10482048     -852.26597840
  entropy T*S    EENTRO =        -0.02820941
  eigenvalues    EBANDS =      -221.60633535
  atomic energy  EATOM  =      1043.39062137
  Solvation  Ediel_sol  =         0.00000000
  ---------------------------------------------------
  free energy    TOTEN  =        -3.18303848 eV

  energy without entropy =       -3.15482907  energy(sigma->0) =       -3.16893377


--------------------------------------------------------------------------------------------------------




--------------------------------------- Iteration      1(  33)  ---------------------------------------


    POTLOK:  cpu time      0.3318: real time      0.3344
    SETDIJ:  cpu time      0.4553: real time      0.4576
     EDDAV:  cpu time      0.0583: real time      0.0590
       DOS:  cpu time      0.0003: real time      0.0003
    CHARGE:  cpu time      0.0229: real time      0.0231
    MIXING:  cpu time      0.0086: real time      0.0087
    --------------------------------------------
      LOOP:  cpu time      0.8773: real time      0.8831

 eigenvalue-minimisations  :    40
 total energy-change (2. order) :-0.1117869E-02  (-0.5027914E-05)
 number of electron      11.0000003 magnetization       5.0000000
 augmentation part        4.1174441 magnetization       0.8449350

 Broyden mixing:
  rms(total) = 0.54732E-03    rms(broyden)= 0.54731E-03
  rms(prec ) = 0.62502E-03
  weight for this iteration     100.00

 eigenvalues of (default mixing * dielectric matrix)
  average eigenvalue GAMMA=   1.1237
  1.4737  1.4737  2.6419  2.6419  2.3181  2.3181  0.8106  0.8106  1.0759  1.0759
  1.1667  1.1667  1.1597  1.1597  1.1410  1.1410  0.7743  0.7743  0.7945  0.7945
  0.7087  0.7087  0.6318  0.6013  0.6013  0.5789  0.5789  0.3407

 Free energy of the ion-electron system (eV)
  ---------------------------------------------------
  alpha Z        PSCENC =         0.65747155
  Ewald energy   TEWEN  =      -163.69159634
  -Hartree energ DENC   =      -702.47383814
  -exchange      EXHF   =         0.00000000
  -V(xc)+E(xc)   XCENC  =        24.71182498
  PAW double counting   =       868.02080267     -852.18163460
  entropy T*S    EENTRO =        -0.02820948
  eigenvalues    EBANDS =      -221.58959835
  atomic energy  EATOM  =      1043.39062137
  Solvation  Ediel_sol  =         0.00000000
  ---------------------------------------------------
  free energy    TOTEN  =        -3.18415635 eV

  energy without entropy =       -3.15594687  energy(sigma->0) =       -3.17005161


--------------------------------------------------------------------------------------------------------




--------------------------------------- Iteration      1(  34)  ---------------------------------------


    POTLOK:  cpu time      0.3351: real time      0.3375
    SETDIJ:  cpu time      0.4552: real time      0.4576
     EDDAV:  cpu time      0.0652: real time      0.0658
       DOS:  cpu time      0.0004: real time      0.0004
    CHARGE:  cpu time      0.0249: real time      0.0252
    MIXING:  cpu time      0.0086: real time      0.0087
    --------------------------------------------
      LOOP:  cpu time      0.8894: real time      0.8951

 eigenvalue-minimisations  :    48
 total energy-change (2. order) :-0.5554619E-03  (-0.1862134E-05)
 number of electron      11.0000003 magnetization       5.0000000
 augmentation part        4.1174444 magnetization       0.8449506

 Broyden mixing:
  rms(total) = 0.46147E-03    rms(broyden)= 0.46147E-03
  rms(prec ) = 0.51558E-03
  weight for this iteration     100.00

 eigenvalues of (default mixing * dielectric matrix)
  average eigenvalue GAMMA=   1.1417
  3.4007  1.4737  1.4737  2.4574  2.4574  2.3116  0.8106  0.8106  1.0759  1.0759
  1.1620  1.1620  1.1684  1.1684  1.2759  1.2759  0.7872  0.7872  0.8007  0.8007
  0.7255  0.7255  0.6907  0.6380  0.5980  0.5980  0.5351  0.5351  0.3270

 Free energy of the ion-electron system (eV)
  ---------------------------------------------------
  alpha Z        PSCENC =         0.65747155
  Ewald energy   TEWEN  =      -163.69159634
  -Hartree energ DENC   =      -702.48186527
  -exchange      EXHF   =         0.00000000
  -V(xc)+E(xc)   XCENC  =        24.71146155
  PAW double counting   =       868.00447432     -852.16520573
  entropy T*S    EENTRO =        -0.02820948
  eigenvalues    EBANDS =      -221.58186377
  atomic energy  EATOM  =      1043.39062137
  Solvation  Ediel_sol  =         0.00000000
  ---------------------------------------------------
  free energy    TOTEN  =        -3.18471181 eV

  energy without entropy =       -3.15650233  energy(sigma->0) =       -3.17060707


--------------------------------------------------------------------------------------------------------




--------------------------------------- Iteration      1(  35)  ---------------------------------------


    POTLOK:  cpu time      0.4195: real time      0.4222
    SETDIJ:  cpu time      0.4553: real time      0.4575
     EDDAV:  cpu time      0.0579: real time      0.0585
       DOS:  cpu time      0.0004: real time      0.0004
    CHARGE:  cpu time      0.0234: real time      0.0236
    MIXING:  cpu time      0.0088: real time      0.0089
    --------------------------------------------
      LOOP:  cpu time      0.9653: real time      0.9711

 eigenvalue-minimisations  :    40
 total energy-change (2. order) :-0.2793439E-03  (-0.5188290E-06)
 number of electron      11.0000003 magnetization       5.0000000
 augmentation part        4.1174568 magnetization       0.8449586

 Broyden mixing:
  rms(total) = 0.33890E-03    rms(broyden)= 0.33890E-03
  rms(prec ) = 0.37725E-03
  weight for this iteration     100.00

 eigenvalues of (default mixing * dielectric matrix)
  average eigenvalue GAMMA=   1.1566
  4.0927  2.5172  2.4242  2.4242  1.4737  1.4737  0.8106  0.8106  1.0759  1.0759
  1.1648  1.1648  1.1592  1.1592  1.3083  1.3083  0.8097  0.8097  0.8146  0.8146
  0.8123  0.6993  0.6993  0.6288  0.6288  0.6094  0.5783  0.5141  0.5141  0.3210

 Free energy of the ion-electron system (eV)
  ---------------------------------------------------
  alpha Z        PSCENC =         0.65747155
  Ewald energy   TEWEN  =      -163.69159634
  -Hartree energ DENC   =      -702.48552364
  -exchange      EXHF   =         0.00000000
  -V(xc)+E(xc)   XCENC  =        24.71122143
  PAW double counting   =       868.00019141     -852.16088304
  entropy T*S    EENTRO =        -0.02820948
  eigenvalues    EBANDS =      -221.57828441
  atomic energy  EATOM  =      1043.39062137
  Solvation  Ediel_sol  =         0.00000000
  ---------------------------------------------------
  free energy    TOTEN  =        -3.18499115 eV

  energy without entropy =       -3.15678167  energy(sigma->0) =       -3.17088641


--------------------------------------------------------------------------------------------------------




--------------------------------------- Iteration      1(  36)  ---------------------------------------


    POTLOK:  cpu time      0.3134: real time      0.3156
    SETDIJ:  cpu time      0.4550: real time      0.4573
     EDDAV:  cpu time      0.0652: real time      0.0659
       DOS:  cpu time      0.0004: real time      0.0004
    CHARGE:  cpu time      0.0252: real time      0.0255
    MIXING:  cpu time      0.0092: real time      0.0092
    --------------------------------------------
      LOOP:  cpu time      0.8683: real time      0.8738

 eigenvalue-minimisations  :    48
 total energy-change (2. order) :-0.2113230E-03  (-0.2627180E-06)
 number of electron      11.0000003 magnetization       5.0000000
 augmentation part        4.1174547 magnetization       0.8449572

 Broyden mixing:
  rms(total) = 0.18259E-03    rms(broyden)= 0.18259E-03
  rms(prec ) = 0.20878E-03
  weight for this iteration     100.00

 eigenvalues of (default mixing * dielectric matrix)
  average eigenvalue GAMMA=   1.2010
  5.1197  2.7436  2.4799  2.4799  1.4737  1.4737  0.8106  0.8106  1.0759  1.0759
  1.4005  1.4005  1.1654  1.1654  1.1593  1.1593  0.9653  0.9653  0.7837  0.7837
  0.7636  0.7636  0.7225  0.7225  0.6275  0.6275  0.6130  0.5876  0.5396  0.4561
  0.3168

 Free energy of the ion-electron system (eV)
  ---------------------------------------------------
  alpha Z        PSCENC =         0.65747155
  Ewald energy   TEWEN  =      -163.69159634
  -Hartree energ DENC   =      -702.48880684
  -exchange      EXHF   =         0.00000000
  -V(xc)+E(xc)   XCENC  =        24.71104598
  PAW double counting   =       867.97895884     -852.13955002
  entropy T*S    EENTRO =        -0.02820948
  eigenvalues    EBANDS =      -221.57513753
  atomic energy  EATOM  =      1043.39062137
  Solvation  Ediel_sol  =         0.00000000
  ---------------------------------------------------
  free energy    TOTEN  =        -3.18520247 eV

  energy without entropy =       -3.15699300  energy(sigma->0) =       -3.17109774


--------------------------------------------------------------------------------------------------------




--------------------------------------- Iteration      1(  37)  ---------------------------------------


    POTLOK:  cpu time      0.3280: real time      0.3304
    SETDIJ:  cpu time      0.4549: real time      0.4572
     EDDAV:  cpu time      0.0624: real time      0.0630
       DOS:  cpu time      0.0004: real time      0.0004
    CHARGE:  cpu time      0.0255: real time      0.0258
    MIXING:  cpu time      0.0094: real time      0.0094
    --------------------------------------------
      LOOP:  cpu time      0.8806: real time      0.8861

 eigenvalue-minimisations  :    44
 total energy-change (2. order) :-0.1146847E-03  (-0.1372210E-06)
 number of electron      11.0000003 magnetization       5.0000000
 augmentation part        4.1174582 magnetization       0.8449593

 Broyden mixing:
  rms(total) = 0.14518E-03    rms(broyden)= 0.14518E-03
  rms(prec ) = 0.16334E-03
  weight for this iteration     100.00

 eigenvalues of (default mixing * dielectric matrix)
  average eigenvalue GAMMA=   1.2162
  5.8911  2.8013  2.5133  2.5133  1.4737  1.4737  0.8106  0.8106  1.0759  1.0759
  1.4739  1.4739  1.1629  1.1629  1.1643  1.1643  0.9751  0.9751  0.7797  0.7797
  0.8096  0.8096  0.6938  0.6938  0.6404  0.6404  0.6066  0.6066  0.5688  0.5688
  0.4140  0.3139

 Free energy of the ion-electron system (eV)
  ---------------------------------------------------
  alpha Z        PSCENC =         0.65747155
  Ewald energy   TEWEN  =      -163.69159634
  -Hartree energ DENC   =      -702.48915569
  -exchange      EXHF   =         0.00000000
  -V(xc)+E(xc)   XCENC  =        24.71090131
  PAW double counting   =       867.97457664     -852.13516753
  entropy T*S    EENTRO =        -0.02820948
  eigenvalues    EBANDS =      -221.57475899
  atomic energy  EATOM  =      1043.39062137
  Solvation  Ediel_sol  =         0.00000000
  ---------------------------------------------------
  free energy    TOTEN  =        -3.18531716 eV

  energy without entropy =       -3.15710768  energy(sigma->0) =       -3.17121242


--------------------------------------------------------------------------------------------------------




--------------------------------------- Iteration      1(  38)  ---------------------------------------


    POTLOK:  cpu time      0.3337: real time      0.3358
    SETDIJ:  cpu time      0.4550: real time      0.4572
     EDDAV:  cpu time      0.0599: real time      0.0605
       DOS:  cpu time      0.0004: real time      0.0004
    CHARGE:  cpu time      0.0258: real time      0.0262
    MIXING:  cpu time      0.0125: real time      0.0126
    --------------------------------------------
      LOOP:  cpu time      0.8873: real time      0.8926

 eigenvalue-minimisations  :    40
 total energy-change (2. order) :-0.7260499E-04  (-0.5274717E-07)
 number of electron      11.0000003 magnetization       5.0000000
 augmentation part        4.1174577 magnetization       0.8449580

 Broyden mixing:
  rms(total) = 0.10371E-03    rms(broyden)= 0.10371E-03
  rms(prec ) = 0.11648E-03
  weight for this iteration     100.00

 eigenvalues of (default mixing * dielectric matrix)
  average eigenvalue GAMMA=   1.2553
  6.8835  2.7930  2.5703  2.5703  1.4737  1.4737  0.8106  0.8106  1.6193  1.6193
  1.0759  1.0759  1.1636  1.1636  1.1660  1.1660  1.2958  0.9976  0.9976  0.7851
  0.7851  0.7802  0.7302  0.7302  0.6495  0.6048  0.6048  0.6102  0.6079  0.5475
  0.5475  0.4018  0.3127

 Free energy of the ion-electron system (eV)
  ---------------------------------------------------
  alpha Z        PSCENC =         0.65747155
  Ewald energy   TEWEN  =      -163.69159634
  -Hartree energ DENC   =      -702.48897594
  -exchange      EXHF   =         0.00000000
  -V(xc)+E(xc)   XCENC  =        24.71081069
  PAW double counting   =       867.96869018     -852.12928194
  entropy T*S    EENTRO =        -0.02820948
  eigenvalues    EBANDS =      -221.57491985
  atomic energy  EATOM  =      1043.39062137
  Solvation  Ediel_sol  =         0.00000000
  ---------------------------------------------------
  free energy    TOTEN  =        -3.18538976 eV

  energy without entropy =       -3.15718029  energy(sigma->0) =       -3.17128502


--------------------------------------------------------------------------------------------------------




--------------------------------------- Iteration      1(  39)  ---------------------------------------


    POTLOK:  cpu time      0.3898: real time      0.3928
    SETDIJ:  cpu time      0.4551: real time      0.4572
     EDDAV:  cpu time      0.0601: real time      0.0607
       DOS:  cpu time      0.0004: real time      0.0004
    CHARGE:  cpu time      0.0254: real time      0.0257
    MIXING:  cpu time      0.0097: real time      0.0098
    --------------------------------------------
      LOOP:  cpu time      0.9405: real time      0.9466

 eigenvalue-minimisations  :    40
 total energy-change (2. order) :-0.6518211E-04  (-0.4502710E-07)
 number of electron      11.0000003 magnetization       5.0000000
 augmentation part        4.1174584 magnetization       0.8449575

 Broyden mixing:
  rms(total) = 0.10881E-03    rms(broyden)= 0.10881E-03
  rms(prec ) = 0.11714E-03
  weight for this iteration     100.00

 eigenvalues of (default mixing * dielectric matrix)
  average eigenvalue GAMMA=   1.2946
  7.8102  2.9768  2.5575  2.5575  1.4737  1.4737  2.4356  0.8106  0.8106  1.0759
  1.0759  1.4496  1.4496  1.1651  1.1651  1.1625  1.1625  0.9945  0.9945  0.7836
  0.7836  0.7984  0.7984  0.7395  0.6767  0.6767  0.6089  0.6089  0.6113  0.5558
  0.5412  0.5412  0.3799  0.3113

 Free energy of the ion-electron system (eV)
  ---------------------------------------------------
  alpha Z        PSCENC =         0.65747155
  Ewald energy   TEWEN  =      -163.69159634
  -Hartree energ DENC   =      -702.48811349
  -exchange      EXHF   =         0.00000000
  -V(xc)+E(xc)   XCENC  =        24.71070662
  PAW double counting   =       867.96621034     -852.12681970
  entropy T*S    EENTRO =        -0.02820948
  eigenvalues    EBANDS =      -221.57572581
  atomic energy  EATOM  =      1043.39062137
  Solvation  Ediel_sol  =         0.00000000
  ---------------------------------------------------
  free energy    TOTEN  =        -3.18545495 eV

  energy without entropy =       -3.15724547  energy(sigma->0) =       -3.17135021


--------------------------------------------------------------------------------------------------------




--------------------------------------- Iteration      1(  40)  ---------------------------------------


    POTLOK:  cpu time      0.3194: real time      0.3216
    SETDIJ:  cpu time      0.4551: real time      0.4572
     EDDAV:  cpu time      0.0730: real time      0.0737
       DOS:  cpu time      0.0004: real time      0.0004
    CHARGE:  cpu time      0.0253: real time      0.0257
    MIXING:  cpu time      0.0098: real time      0.0098
    --------------------------------------------
      LOOP:  cpu time      0.8830: real time      0.8884

 eigenvalue-minimisations  :    56
 total energy-change (2. order) :-0.3463128E-04  (-0.2596935E-07)
 number of electron      11.0000003 magnetization       5.0000000
 augmentation part        4.1174593 magnetization       0.8449560

 Broyden mixing:
  rms(total) = 0.76205E-04    rms(broyden)= 0.76204E-04
  rms(prec ) = 0.80436E-04
  weight for this iteration     100.00

 eigenvalues of (default mixing * dielectric matrix)
  average eigenvalue GAMMA=   1.3060
  8.2279  3.4515  2.6219  2.5045  2.5045  1.4737  1.4737  0.8106  0.8106  1.0759
  1.0759  1.1650  1.1650  1.1616  1.1616  1.3709  1.3709  1.2038  0.9031  0.8507
  0.8507  0.7863  0.7863  0.6867  0.6867  0.6708  0.6708  0.6369  0.6369  0.5958
  0.5958  0.5184  0.5184  0.3745  0.3109

 Free energy of the ion-electron system (eV)
  ---------------------------------------------------
  alpha Z        PSCENC =         0.65747155
  Ewald energy   TEWEN  =      -163.69159634
  -Hartree energ DENC   =      -702.48729218
  -exchange      EXHF   =         0.00000000
  -V(xc)+E(xc)   XCENC  =        24.71064628
  PAW double counting   =       867.96631607     -852.12692640
  entropy T*S    EENTRO =        -0.02820948
  eigenvalues    EBANDS =      -221.57652044
  atomic energy  EATOM  =      1043.39062137
  Solvation  Ediel_sol  =         0.00000000
  ---------------------------------------------------
  free energy    TOTEN  =        -3.18548958 eV

  energy without entropy =       -3.15728010  energy(sigma->0) =       -3.17138484


--------------------------------------------------------------------------------------------------------




--------------------------------------- Iteration      1(  41)  ---------------------------------------


    POTLOK:  cpu time      0.3189: real time      0.3211
    SETDIJ:  cpu time      0.4553: real time      0.4574
     EDDAV:  cpu time      0.0599: real time      0.0605
       DOS:  cpu time      0.0004: real time      0.0004
    CHARGE:  cpu time      0.0249: real time      0.0253
    MIXING:  cpu time      0.0102: real time      0.0103
    --------------------------------------------
      LOOP:  cpu time      0.8695: real time      0.8750

 eigenvalue-minimisations  :    40
 total energy-change (2. order) :-0.1738553E-04  (-0.1482987E-07)
 number of electron      11.0000003 magnetization       5.0000000
 augmentation part        4.1174610 magnetization       0.8449569

 Broyden mixing:
  rms(total) = 0.68421E-04    rms(broyden)= 0.68421E-04
  rms(prec ) = 0.71549E-04
  weight for this iteration     100.00

 eigenvalues of (default mixing * dielectric matrix)
  average eigenvalue GAMMA=   1.3165
  8.7089  3.8007  2.5486  2.4675  2.4675  1.4737  1.4737  1.8443  0.8106  0.8106
  1.0759  1.0759  1.1653  1.1653  1.1612  1.1612  1.2180  1.2180  0.9482  0.9482
  0.7974  0.7974  0.7951  0.7951  0.7277  0.6744  0.6744  0.6018  0.6018  0.6051
  0.6051  0.5309  0.5309  0.4460  0.3576  0.3100

 Free energy of the ion-electron system (eV)
  ---------------------------------------------------
  alpha Z        PSCENC =         0.65747155
  Ewald energy   TEWEN  =      -163.69159634
  -Hartree energ DENC   =      -702.48676775
  -exchange      EXHF   =         0.00000000
  -V(xc)+E(xc)   XCENC  =        24.71061490
  PAW double counting   =       867.96562975     -852.12623155
  entropy T*S    EENTRO =        -0.02820948
  eigenvalues    EBANDS =      -221.57703940
  atomic energy  EATOM  =      1043.39062137
  Solvation  Ediel_sol  =         0.00000000
  ---------------------------------------------------
  free energy    TOTEN  =        -3.18550696 eV

  energy without entropy =       -3.15729748  energy(sigma->0) =       -3.17140222


--------------------------------------------------------------------------------------------------------




--------------------------------------- Iteration      1(  42)  ---------------------------------------


    POTLOK:  cpu time      0.3278: real time      0.3304
    SETDIJ:  cpu time      0.4547: real time      0.4568
     EDDAV:  cpu time      0.0601: real time      0.0607
       DOS:  cpu time      0.0002: real time      0.0002
    --------------------------------------------
      LOOP:  cpu time      0.8428: real time      0.8481

 eigenvalue-minimisations  :    40
 total energy-change (2. order) :-0.9698659E-05  (-0.9554392E-08)
 number of electron      11.0000003 magnetization       5.0000000
 augmentation part        4.1174610 magnetization       0.8449569

 Free energy of the ion-electron system (eV)
  ---------------------------------------------------
  alpha Z        PSCENC =         0.65747155
  Ewald energy   TEWEN  =      -163.69159634
  -Hartree energ DENC   =      -702.48654371
  -exchange      EXHF   =         0.00000000
  -V(xc)+E(xc)   XCENC  =        24.71059920
  PAW double counting   =       867.96235137     -852.12293967
  entropy T*S    EENTRO =        -0.02820948
  eigenvalues    EBANDS =      -221.57727095
  atomic energy  EATOM  =      1043.39062137
  Solvation  Ediel_sol  =         0.00000000
  ---------------------------------------------------
  free energy    TOTEN  =        -3.18551666 eV

  energy without entropy =       -3.15730718  energy(sigma->0) =       -3.17141192


--------------------------------------------------------------------------------------------------------




 average (electrostatic) potential at core
  the test charge radii are     1.2125
  (the norm of the test charge is              1.0000)
       1 -43.4471
 
 
 
 E-fermi :  -3.4759     XC(G=0):  -0.2916     alpha+bet : -0.0680

 Fermi energy:        -3.4758698043

 spin component 1

 k-point     1 :       0.0000    0.0000    0.0000
  band No.  band energies     occupation 
      1     -34.8634      1.00000
      2     -34.8633      1.00000
      3     -34.8633      1.00000
      4      -4.4079      1.00000
      5      -3.7267      1.00000
      6      -3.7267      1.00000
      7      -3.7266      1.00000
      8      -3.4759      0.50008
      9      -3.4759      0.49992
     10      -1.2918      0.00000
     11      -1.2916      0.00000
     12      -1.2914      0.00000
 Fermi energy:        -3.4758698043

 spin component 2

 k-point     1 :       0.0000    0.0000    0.0000
  band No.  band energies     occupation 
      1     -32.6412      1.00000
      2     -32.6411      1.00000
      3     -32.6411      1.00000
      4      -1.7715      0.00000
      5      -1.0747      0.00000
      6      -1.0738      0.00000
      7      -0.8064      0.00000
      8      -0.8060      0.00000
      9      -0.8055      0.00000
     10       0.0956      0.00000
     11       0.6767      0.00000
     12       0.6875      0.00000


--------------------------------------------------------------------------------------------------------


 soft charge-density along one line, spin component           1
         0         1         2         3         4         5         6         7         8         9
 total charge-density along one line
 
 soft charge-density along one line, spin component           2
         0         1         2         3         4         5         6         7         8         9
 total charge-density along one line
 
 pseudopotential strength for first ion, spin component:           1
-33.203  -0.000  -0.000   9.183   0.000   0.000  -0.000   0.000
 -0.000 -33.203   0.000   0.000   9.183  -0.000  -0.000  -0.000
 -0.000   0.000 -33.203   0.000  -0.000   9.183  -0.000  -0.000
  9.183   0.000   0.000   3.107  -0.000  -0.000   0.000  -0.000
  0.000   9.183  -0.000  -0.000   3.107   0.000   0.000   0.000
  0.000  -0.000   9.183  -0.000   0.000   3.107   0.000   0.000
 -0.000  -0.000  -0.000   0.000   0.000   0.000  -8.546   0.002
  0.000  -0.000  -0.000  -0.000   0.000   0.000   0.002  -8.534
  0.000   0.000   0.000  -0.000  -0.000  -0.000  -0.003  -0.011
 -0.000  -0.000   0.000   0.000   0.000  -0.000  -0.002  -0.004
  0.000  -0.000  -0.000  -0.000   0.000   0.000   0.002  -0.009
 -0.000  -0.000  -0.000   0.000   0.000   0.000  -9.826   0.002
  0.000  -0.000  -0.000  -0.000   0.000   0.000   0.002  -9.812
  0.000   0.000   0.000  -0.000  -0.000  -0.000  -0.004  -0.013
 -0.000  -0.000   0.000   0.000   0.000  -0.000  -0.003  -0.005
  0.000  -0.000  -0.000  -0.000   0.000   0.000   0.002  -0.010
  0.000  -0.000   0.000   0.000  -0.000  -0.000   0.000   0.000
 -0.000   0.000  -0.000  -0.000   0.000   0.000  -0.000  -0.000
 pseudopotential strength for first ion, spin component:           2
-32.212  -0.000  -0.000   8.569   0.000   0.000  -0.000   0.000
 -0.000 -32.212   0.000   0.000   8.569  -0.000  -0.000  -0.000
 -0.000   0.000 -32.212   0.000  -0.000   8.569  -0.000  -0.000
  8.569   0.000   0.000   3.244  -0.000  -0.000   0.000  -0.000
  0.000   8.569  -0.000  -0.000   3.244   0.000  -0.000   0.000
  0.000  -0.000   8.569  -0.000   0.000   3.244   0.000  -0.000
 -0.000  -0.000  -0.000   0.000  -0.000   0.000  -8.020  -0.005
  0.000  -0.000  -0.000  -0.000   0.000  -0.000  -0.005  -8.050
  0.000   0.000   0.000  -0.000  -0.000  -0.000   0.009   0.028
 -0.000  -0.000   0.000  -0.000   0.000  -0.000   0.006   0.010
  0.000  -0.000  -0.000  -0.000  -0.000   0.000  -0.005   0.022
 -0.000  -0.000  -0.000   0.000  -0.000   0.000  -9.200  -0.006
  0.000  -0.000  -0.000  -0.000   0.000  -0.000  -0.006  -9.236
  0.000   0.000   0.000  -0.000  -0.000  -0.000   0.011   0.033
 -0.000  -0.000   0.000  -0.000   0.000  -0.000   0.007   0.012
  0.000   0.000  -0.000  -0.000  -0.000   0.000  -0.005   0.027
  0.000  -0.000   0.000   0.000  -0.000  -0.000   0.000   0.000
 -0.000   0.000  -0.000  -0.000   0.000   0.000  -0.000  -0.000
 total augmentation occupancy for first ion, spin component:           1
  1.999   0.000  -0.000  -0.000   0.000  -0.000  -0.000  -0.000   0.000  -0.000   0.000   0.000   0.000  -0.000   0.000  -0.000
  0.000   1.999  -0.000   0.000  -0.000  -0.000   0.000   0.000  -0.000   0.000   0.000  -0.000  -0.000   0.000  -0.000  -0.000
 -0.000  -0.000   1.999  -0.000  -0.000  -0.000  -0.000  -0.000   0.000  -0.000   0.000   0.000   0.000  -0.000   0.000  -0.000
 -0.000   0.000  -0.000   0.000  -0.000   0.000   0.000   0.000   0.000   0.000   0.000  -0.000  -0.000  -0.000  -0.000  -0.000
  0.000  -0.000  -0.000  -0.000   0.000   0.000   0.000  -0.000  -0.000   0.000  -0.000  -0.000   0.000   0.000  -0.000   0.000
 -0.000  -0.000  -0.000   0.000   0.000   0.000   0.000  -0.000   0.000   0.000  -0.000  -0.000   0.000  -0.000   0.000   0.000
 -0.000   0.000  -0.000   0.000   0.000   0.000   1.301  -0.048   0.083   0.058  -0.042  -0.140   0.006  -0.010  -0.007   0.005
 -0.000   0.000  -0.000   0.000  -0.000  -0.000  -0.048   1.023   0.256   0.096   0.206   0.006  -0.105  -0.033  -0.012  -0.026
  0.000  -0.000   0.000   0.000  -0.000   0.000   0.083   0.256   0.971  -0.215   0.058  -0.011  -0.033  -0.098   0.027  -0.007
 -0.000   0.000  -0.000   0.000   0.000   0.000   0.058   0.096  -0.215   1.156   0.172  -0.007  -0.012   0.027  -0.122  -0.022
  0.000   0.000   0.000   0.000  -0.000  -0.000  -0.042   0.206   0.058   0.172   0.761   0.005  -0.026  -0.007  -0.022  -0.072
  0.000  -0.000   0.000  -0.000  -0.000  -0.000  -0.140   0.006  -0.011  -0.007   0.005   0.015  -0.001   0.001   0.001  -0.001
  0.000  -0.000   0.000  -0.000   0.000   0.000   0.006  -0.105  -0.033  -0.012  -0.026  -0.001   0.011   0.004   0.001   0.003
 -0.000   0.000  -0.000  -0.000   0.000  -0.000  -0.010  -0.033  -0.098   0.027  -0.007   0.001   0.004   0.010  -0.003   0.001
  0.000  -0.000   0.000  -0.000  -0.000   0.000  -0.007  -0.012   0.027  -0.122  -0.022   0.001   0.001  -0.003   0.013   0.003
 -0.000  -0.000  -0.000  -0.000   0.000   0.000   0.005  -0.026  -0.007  -0.022  -0.072  -0.001   0.003   0.001   0.003   0.007
 -0.000   0.000  -0.000   0.000  -0.000   0.000   0.000   0.000  -0.000  -0.000   0.000  -0.000  -0.000   0.000   0.000  -0.000
 -0.000   0.000  -0.000   0.000  -0.000   0.000  -0.000  -0.000  -0.000  -0.000  -0.000   0.000   0.000   0.000   0.000   0.000
 total augmentation occupancy for first ion, spin component:           2
  0.007   0.000  -0.000   0.020  -0.000   0.000   0.000  -0.000   0.000  -0.000   0.000  -0.000   0.000  -0.000   0.000  -0.000
  0.000   0.007   0.000  -0.000   0.020   0.000   0.000   0.000   0.000   0.000  -0.000  -0.000  -0.000  -0.000  -0.000   0.000
 -0.000   0.000   0.007  -0.000   0.000   0.020  -0.000  -0.000   0.000  -0.000   0.000   0.000   0.000   0.000   0.000  -0.000
  0.020  -0.000  -0.000  -0.000   0.000  -0.000   0.000   0.000   0.000   0.000   0.000  -0.000   0.000  -0.000  -0.000  -0.000
 -0.000   0.020   0.000   0.000  -0.000  -0.000   0.000  -0.000  -0.000   0.000  -0.000  -0.000   0.000   0.000  -0.000   0.000
  0.000   0.000   0.020  -0.000  -0.000  -0.000   0.000  -0.000   0.000   0.000  -0.000  -0.000   0.000  -0.000   0.000   0.000
  0.000   0.000  -0.000   0.000   0.000   0.000   1.301  -0.048   0.083   0.058  -0.042  -0.140   0.006  -0.010  -0.007   0.005
 -0.000   0.000  -0.000   0.000  -0.000  -0.000  -0.048   1.023   0.256   0.096   0.206   0.006  -0.105  -0.033  -0.012  -0.026
  0.000   0.000   0.000   0.000  -0.000   0.000   0.083   0.256   0.971  -0.215   0.058  -0.011  -0.033  -0.098   0.027  -0.007
 -0.000   0.000  -0.000   0.000   0.000   0.000   0.058   0.096  -0.215   1.156   0.172  -0.007  -0.012   0.027  -0.122  -0.022
  0.000  -0.000   0.000   0.000  -0.000  -0.000  -0.042   0.206   0.058   0.172   0.761   0.005  -0.026  -0.007  -0.022  -0.072
 -0.000  -0.000   0.000  -0.000  -0.000  -0.000  -0.140   0.006  -0.011  -0.007   0.005   0.015  -0.001   0.001   0.001  -0.001
  0.000  -0.000   0.000   0.000   0.000   0.000   0.006  -0.105  -0.033  -0.012  -0.026  -0.001   0.011   0.004   0.001   0.003
 -0.000  -0.000   0.000  -0.000   0.000  -0.000  -0.010  -0.033  -0.098   0.027  -0.007   0.001   0.004   0.010  -0.003   0.001
  0.000  -0.000   0.000  -0.000  -0.000   0.000  -0.007  -0.012   0.027  -0.122  -0.022   0.001   0.001  -0.003   0.013   0.003
 -0.000   0.000  -0.000  -0.000   0.000   0.000   0.005  -0.026  -0.007  -0.022  -0.072  -0.001   0.003   0.001   0.003   0.007
  0.000   0.000   0.000   0.000  -0.000   0.000   0.000   0.000  -0.000  -0.000   0.000  -0.000  -0.000   0.000   0.000  -0.000
  0.000   0.000   0.000  -0.000   0.000  -0.000  -0.000  -0.000  -0.000  -0.000  -0.000   0.000   0.000   0.000   0.000   0.000


------------------------ aborting loop because EDIFF is reached ----------------------------------------


    CHARGE:  cpu time      0.0276: real time      0.0279
    FORLOC:  cpu time      0.0019: real time      0.0019
    FORNL :  cpu time      0.0062: real time      0.0063
    STRESS:  cpu time      0.0205: real time      0.0206
    FORCOR:  cpu time      0.3146: real time      0.3165
    FORHAR:  cpu time      0.0298: real time      0.0300
    MIXING:  cpu time      0.0106: real time      0.0107
    OFIELD:  cpu time      0.0001: real time      0.0001

  FORCE on cell =-STRESS in cart. coord.  units (eV):
  Direction    XX          YY          ZZ          XY          YZ          ZX
  --------------------------------------------------------------------------------------
  Alpha Z     0.65747     0.65747     0.65747
  Ewald     -53.46262   -54.56484   -55.66414     0.00000     0.00000     0.00000
  Hartree   235.23455   234.16200   233.08920     0.00005     0.00031     0.00018
  E(xc)     -47.45956   -47.45961   -47.45957    -0.00000    -0.00001    -0.00001
  Local    -227.22593  -225.05335  -222.88082     0.00006    -0.00049    -0.00053
  n-local   -52.82811   -52.82871   -52.82843     0.00006    -0.00004    -0.00014
  augment    25.48988    25.49028    25.49044    -0.00010    -0.00002     0.00009
  Kinetic   119.59119   119.59335   119.59311    -0.00018     0.00016     0.00035
  Fock        0.00000     0.00000     0.00000     0.00000     0.00000     0.00000
  -------------------------------------------------------------------------------------
  Total      -0.00314    -0.00340    -0.00274    -0.00012    -0.00008    -0.00006
  in kB      -0.00146    -0.00158    -0.00128    -0.00006    -0.00004    -0.00003
  external pressure =       -0.00 kB  Pullay stress =        0.00 kB


 VOLUME and BASIS-vectors are now :
 -----------------------------------------------------------------------------
  energy-cutoff  :      520.00
  volume of cell :     3442.80
      direct lattice vectors                 reciprocal lattice vectors
    15.000000000  0.000000000  0.000000000     0.066666667 -0.000000000  0.000000000
     0.000000000 15.100000000  0.000000000     0.000000000  0.066225166  0.000000000
     0.000000000  0.000000000 15.200000000    -0.000000000 -0.000000000  0.065789474

  length of vectors
    15.000000000 15.100000000 15.200000000     0.066666667  0.066225166  0.065789474


 FORCES acting on ions
    electron-ion (+dipol)            ewald-force                    non-local-force                 convergence-correction
 -----------------------------------------------------------------------------------------------
   0.326E-04 0.113E-04 -.424E-04   0.300E-16 -.376E-16 -.295E-16   0.129E-04 -.827E-05 -.140E-04   -.432E-04 -.358E-04 0.566E-04
 -----------------------------------------------------------------------------------------------
   0.326E-04 0.113E-04 -.424E-04   0.300E-16 -.376E-16 -.295E-16   0.129E-04 -.827E-05 -.140E-04   -.432E-04 -.358E-04 0.566E-04
 
 
 POSITION                                       TOTAL-FORCE (eV/Angst)
 -----------------------------------------------------------------------------------
      0.00000      0.00000      0.00000         0.000002     -0.000033      0.000000
 -----------------------------------------------------------------------------------
    total drift:                                0.000002     -0.000033      0.000000


--------------------------------------------------------------------------------------------------------



  FREE ENERGIE OF THE ION-ELECTRON SYSTEM (eV)
  ---------------------------------------------------
  free  energy   TOTEN  =        -3.18551666 eV

  energy  without entropy=       -3.15730718  energy(sigma->0) =       -3.17141192
 


--------------------------------------------------------------------------------------------------------


    POTLOK:  cpu time      0.7687: real time      0.7733


--------------------------------------------------------------------------------------------------------


     LOOP+:  cpu time     36.7576: real time     36.9908
    4ORBIT:  cpu time      0.0000: real time      0.0000

 total amount of memory used by VASP MPI-rank0    58583. kBytes
=======================================================================

   base      :      30000. kBytes
   nonl-proj :        233. kBytes
   fftplans  :       8156. kBytes
   grid      :      19898. kBytes
   one-center:         15. kBytes
   wavefun   :        281. kBytes
 
  
  
 General timing and accounting informations for this job:
 ========================================================
  
                  Total CPU time used (sec):       38.319
                            User time (sec):       34.619
                          System time (sec):        3.701
                         Elapsed time (sec):       39.136
  
                   Maximum memory used (kb):      452996.
                   Average memory used (kb):          N/A
  
                          Minor page faults:       178091
                          Major page faults:           47
                 Voluntary context switches:         1506
