 vasp.6.4.2 20Jul23 (build Aug 07 2024 12:45:50) gamma-only                     
  
 executed on             LinuxIFC date 2026.09.30  12:22:27
 running   64 mpi-ranks, on    1 nodes
 distrk:  each k-point on   64 cores,    1 groups
 distr:  one band on NCORE=  32 cores,    2 groups


--------------------------------------------------------------------------------------------------------


 INCAR:
   ALGO = Normal
   EDIFF = 1e-05
   EFERMI = Midgap
   ENCUT = 520.0
   GGA = Pe
   GGA_COMPAT = False
   IBRION = -1
   ISMEAR = 0
   ISPIN = 2
   ISYM = 0
   LAECHG = False
   LASPH = True
   LCHARG = False
   LMAXMIX = 6
   LMIXTAU = True
   LREAL = False
   LWAVE = False
   MAGMOM = 1*2.0
   NCORE = 32
   NELM = 400
   NSW = 0
   PREC = Accurate
   SIGMA = 0.05
   SYSTEM = Sn_atom_ispin2

 POTCAR:    PAW_PBE Sn_d 06Sep2000                
 -----------------------------------------------------------------------------
|                                                                             |
|           W    W    AA    RRRRR   N    N  II  N    N   GGGG   !!!           |
|           W    W   A  A   R    R  NN   N  II  NN   N  G    G  !!!           |
|           W    W  A    A  R    R  N N  N  II  N N  N  G       !!!           |
|           W WW W  AAAAAA  RRRRR   N  N N  II  N  N N  G  GGG   !            |
|           WW  WW  A    A  R   R   N   NN  II  N   NN  G    G                |
|           W    W  A    A  R    R  N    N  II  N    N   GGGG   !!!           |
|                                                                             |
|     For optimal performance we recommend to set                             |
|       NCORE = 2 up to number-of-cores-per-socket                            |
|     NCORE specifies how many cores store one orbital (NPAR=cpu/NCORE).      |
|     This setting can greatly improve the performance of VASP for DFT.       |
|     The default, NCORE=1 might be grossly inefficient on modern             |
|     multi-core architectures or massively parallel machines. Do your        |
|     own testing! More info at https://www.vasp.at/wiki/index.php/NCORE      |
|     Unfortunately you need to use the default for GW and RPA                |
|     calculations (for HF NCORE is supported but not extensively tested      |
|     yet).                                                                   |
|                                                                             |
 -----------------------------------------------------------------------------

 POTCAR:    PAW_PBE Sn_d 06Sep2000                
   SHA256 =  385b269c1887fa92a2bd1b595c4ea1490c7eb92f9f3d87257729a4a813cde741 Sn_d/POTCAR           
   COPYR  = (c) Copyright 06Sep2000 Georg Kresse                                                    
   COPYR  = This file is part of the software VASP. Any use, copying, and all other rights are regul
   COPYR  = If you do not have a valid VASP license, you may not use, copy or distribute this file. 
   VRHFIN =Sn: s2p2                                                                                 
   LEXCH  = PE                                                                                      
   EATOM  =  1893.1092 eV,  139.1396 Ry                                                             
                                                                                                    
   TITEL  = PAW_PBE Sn_d 06Sep2000                                                                  
   LULTRA =        F    use ultrasoft PP ?                                                          
   IUNSCR =        1    unscreen: 0-lin 1-nonlin 2-no                                               
   RPACOR =    2.300    partial core radius                                                         
   POMASS =  118.710; ZVAL   =   14.000    mass and valenz                                          
   RCORE  =    2.500    outmost cutoff radius                                                       
   RWIGS  =    2.960; RWIGS  =    1.566    wigner-seitz radius (au A)                               
   ENMAX  =  241.083; ENMIN  =  180.812 eV                                                          
   ICORE  =        3    local potential                                                             
   LCOR   =        T    correct aug charges                                                         
   LPAW   =        T    paw PP                                                                      
   EAUG   =  439.825                                                                                
   DEXC   =    0.000                                                                                
   RMAX   =    2.560    core radius for proj-oper                                                   
   RAUG   =    1.300    factor for augmentation sphere                                              
   RDEP   =    2.659    radius for radial grids                                                     
   RDEPT  =    2.046    core radius for aug-charge                                                  
                                                                                                    
   Atomic configuration                                                                             
   12 entries                                                                                       
     n  l   j            E        occ.                                                              
     1  0  0.50    -29007.2859   2.0000                                                             
     2  0  0.50     -4378.8056   2.0000                                                             
     2  1  1.50     -3930.4293   6.0000                                                             
     3  0  0.50      -845.0264   2.0000                                                             
     3  1  1.50      -698.5725   6.0000                                                             
     3  2  2.50      -473.2839  10.0000                                                             
     4  0  0.50      -133.9036   2.0000                                                             
     4  1  1.50       -89.6752   6.0000                                                             
     4  2  2.50       -25.8375  10.0000                                                             
     5  0  0.50       -10.5484   2.0000                                                             
     5  1  0.50        -3.6940   2.0000                                                             
     4  3  2.50        -2.7416   0.0000                                                             
   Description                                                                                      
     l       E           TYP  RCUT    TYP  RCUT                                                     
     2    -25.8374624     23  2.500                                                                 
     2     -5.4423304     23  2.500                                                                 
     0    -10.5483727     23  2.500                                                                 
     0     13.6058260     23  2.500                                                                 
     1     -3.6939829     23  2.500                                                                 
     1      1.9821976     23  2.500                                                                 
     3     -1.3605826      7  2.500                                                                 
  local pseudopotential read in
  partial core-charges read in
  partial kinetic energy density read in
  atomic valenz-charges read in
  non local Contribution for L=           2  read in
    real space projection operators read in
  non local Contribution for L=           2  read in
    real space projection operators read in
  non local Contribution for L=           0  read in
    real space projection operators read in
  non local Contribution for L=           0  read in
    real space projection operators read in
  non local Contribution for L=           1  read in
    real space projection operators read in
  non local Contribution for L=           1  read in
    real space projection operators read in
    PAW grid and wavefunctions read in
 
   number of l-projection  operators is LMAX  =           6
   number of lm-projection operators is LMMAX =          18
 
  PAW_PBE Sn_d 06Sep2000                :
 energy of atom  1       EATOM=-1893.1092
 kinetic energy error for atom=    0.0026 (will be added to EATOM!!)
 
 
 POSCAR: Sn1
  positions in direct lattice
  No initial velocities read in
 exchange correlation table for  LEXCH =        8
   RHO(1)=    0.500       N(1)  =     2000
   RHO(2)=  100.500       N(2)  =     4000
 


--------------------------------------------------------------------------------------------------------


 ion  position               nearest neighbor table
   1  0.000  0.000  0.000-
 

IMPORTANT INFORMATION: All symmetrisations will be switched off!
NOSYMM: (Re-)initialisation of all symmetry stuff for point group C_1.


----------------------------------------------------------------------------------------

                                     Primitive cell                                     

  volume of cell :    3442.8000

  direct lattice vectors                    reciprocal lattice vectors
    15.000000000  0.000000000  0.000000000     0.066666667 -0.000000000  0.000000000
     0.000000000 15.100000000  0.000000000     0.000000000  0.066225166  0.000000000
     0.000000000  0.000000000 15.200000000    -0.000000000 -0.000000000  0.065789474

  length of vectors
    15.000000000 15.100000000 15.200000000     0.066666667  0.066225166  0.065789474

  position of ions in fractional coordinates (direct lattice)
     0.000000000  0.000000000  0.000000000

  ion indices of the primitive-cell ions
   primitive index   ion index
                 1           1

----------------------------------------------------------------------------------------

 
 
 KPOINTS: Automatic kpoint scheme                 

Automatic generation of k-mesh.
 Grid dimensions read from file:
 generate k-points for:    1    1    1

 Generating k-lattice:

  Cartesian coordinates                     Fractional coordinates (reciprocal lattice)
     0.066666667 -0.000000000  0.000000000     1.000000000 -0.000000000  0.000000000
     0.000000000  0.066225166  0.000000000     0.000000000  1.000000000  0.000000000
    -0.000000000 -0.000000000  0.065789474     0.000000000 -0.000000000  1.000000000

  Length of vectors
     0.066666667  0.066225166  0.065789474

  Shift w.r.t. Gamma in fractional coordinates (k-lattice)
     0.000000000  0.000000000  0.000000000

 
 Subroutine IBZKPT returns following result:
 ===========================================
 
 Found      1 irreducible k-points:
 
 Following reciprocal coordinates:
            Coordinates               Weight
  0.000000  0.000000  0.000000      1.000000
 
 Following cartesian coordinates:
            Coordinates               Weight
  0.000000  0.000000  0.000000      1.000000
 


--------------------------------------------------------------------------------------------------------




 Dimension of arrays:
   k-points           NKPTS =      1   k-points in BZ     NKDIM =      1   number of bands    NBANDS=     12
   number of dos      NEDOS =    301   number of ions     NIONS =      1
   non local maximal  LDIM  =      6   non local SUM 2l+1 LMDIM =     18
   total plane-waves  NPLWV = ******
   max r-space proj   IRMAX =      1   max aug-charges    IRDMAX=  19723
   dimension x,y,z NGX =   112 NGY =  112 NGZ =  120
   dimension x,y,z NGXF=   224 NGYF=  224 NGZF=  240
   support grid    NGXF=   224 NGYF=  224 NGZF=  240
   ions per type =               1
   NGX,Y,Z   is equivalent  to a cutoff of  12.41, 12.33, 13.12 a.u.
   NGXF,Y,Z  is equivalent  to a cutoff of  24.83, 24.66, 26.25 a.u.

 SYSTEM =  Sn_atom_ispin2                          
 POSCAR =  Sn1                                     

 Startparameter for this run:
   NWRITE =      2    write-flag & timer
   PREC   = accura    normal or accurate (medium, high low for compatibility)
   ISTART =      0    job   : 0-new  1-cont  2-samecut
   ICHARG =      2    charge: 1-file 2-atom 10-const
   ISPIN  =      2    spin polarized calculation?
   LNONCOLLINEAR =      F non collinear calculations
   LSORBIT =      F    spin-orbit coupling
   INIWAV =      1    electr: 0-lowe 1-rand  2-diag
   LASPH  =      T    aspherical Exc in radial PAW
 Electronic Relaxation 1
   ENCUT  =  520.0 eV  38.22 Ry    6.18 a.u.  27.89 28.08 28.26*2*pi/ulx,y,z
   ENINI  =  520.0     initial cutoff
   ENAUG  =  439.8 eV  augmentation charge cutoff
   NELM   =    400;   NELMIN=  2; NELMDL= -5     # of ELM steps 
   EDIFF  = 0.1E-04   stopping-criterion for ELM
   LREAL  =      F    real-space projection
   NLSPLINE    = F    spline interpolate recip. space projectors
   LCOMPAT=      F    compatible to vasp.4.4
   GGA_COMPAT  = F    GGA compatible to vasp.4.4-vasp.4.6
   LMAXPAW     = -100 max onsite density
   LMAXMIX     =    6 max onsite mixed and CHGCAR
   VOSKOWN=      0    Vosko Wilk Nusair interpolation
   ROPT   =    0.00000
 Ionic relaxation
   EDIFFG = 0.1E-03   stopping-criterion for IOM
   NSW    =      0    number of steps for IOM
   NBLOCK =      1;   KBLOCK =      1    inner block; outer block 
   IBRION =     -1    ionic relax: 0-MD 1-quasi-New 2-CG
   NFREE  =      0    steps in history (QN), initial steepest desc. (CG)
   ISIF   =      2    stress and relaxation
   IWAVPR =     10    prediction:  0-non 1-charg 2-wave 3-comb
   ISYM   =      0    0-nonsym 1-usesym 2-fastsym
   LCORR  =      T    Harris-Foulkes like correction to forces

   POTIM  = 0.5000    time-step for ionic-motion
   TEIN   =    0.0    initial temperature
   TEBEG  =    0.0;   TEEND  =   0.0 temperature during run
   SMASS  =  -3.00    Nose mass-parameter (am)
   estimated Nose-frequenzy (Omega)   =  0.10E-29 period in steps = 0.13E+47 mass=  -0.514E-26a.u.
   SCALEE = 1.0000    scale energy and forces
   NPACO  =    256;   APACO  = 10.0  distance and # of slots for P.C.
   PSTRESS=    0.0 pullay stress

  Mass of Ions in am
   POMASS = 118.71
  Ionic Valenz
   ZVAL   =  14.00
  Atomic Wigner-Seitz radii
   RWIGS  =  -1.00
  virtual crystal weights 
   VCA    =   1.00
   NELECT =      14.0000    total number of electrons
   NUPDOWN=      -1.0000    fix difference up-down

 DOS related values:
   EMIN   =  10.00;   EMAX   =-10.00  energy-range for DOS
   EFERMI =   0.00;   METHOD = MIDGAP      
   ISMEAR =     0;   SIGMA  =   0.05  broadening in eV -4-tet -1-fermi 0-gaus

 Electronic relaxation 2 (details)
   IALGO  =     38    algorithm
   LDIAG  =      T    sub-space diagonalisation (order eigenvalues)
   LSUBROT=      F    optimize rotation matrix (better conditioning)
   TURBO    =      0    0=normal 1=particle mesh
   IRESTART =      0    0=no restart 2=restart with 2 vectors
   NREBOOT  =      0    no. of reboots
   NMIN     =      0    reboot dimension
   EREF     =   0.00    reference energy to select bands
   IMIX   =      4    mixing-type and parameters
     AMIX     =   0.40;   BMIX     =  1.00
     AMIX_MAG =   1.60;   BMIX_MAG =  1.00
     AMIN     =   0.10
     WC   =   100.;   INIMIX=   1;  MIXPRE=   1;  MAXMIX= -45

 Intra band minimization:
   WEIMIN = 0.0000     energy-eigenvalue tresh-hold
   EBREAK =  0.21E-06  absolut break condition
   DEPER  =   0.30     relativ break condition  

   TIME   =   0.40     timestep for ELM

  volume/ion in A,a.u.               =    3442.80     23233.16
  Fermi-wavevector in a.u.,A,eV,Ry     =   0.261305  0.493794  0.929006  0.068280
  Thomas-Fermi vector in A             =   1.090002
 
 Write flags
   LWAVE        =      F    write WAVECAR
   LDOWNSAMPLE  =      F    k-point downsampling of WAVECAR
   LCHARG       =      F    write CHGCAR
   LVTOT        =      F    write LOCPOT, total local potential
   LVHAR        =      F    write LOCPOT, Hartree potential only
   LELF         =      F    write electronic localiz. function (ELF)
   LORBIT       =      0    0 simple, 1 ext, 2 COOP (PROOUT), +10 PAW based schemes


 Dipole corrections
   LMONO  =      F    monopole corrections only (constant potential shift)
   LDIPOL =      F    correct potential (dipole corrections)
   IDIPOL =      0    1-x, 2-y, 3-z, 4-all directions 
   EPSILON=  1.0000000 bulk dielectric constant

 Exchange correlation treatment:
   GGA     =    PE    GGA type
   LEXCH   =     8    internal setting for exchange type
   LIBXC   =     F    Libxc                    
   VOSKOWN =     0    Vosko Wilk Nusair interpolation
   LHFCALC =     F    Hartree Fock is set to
   LHFONE  =     F    Hartree Fock one center treatment
   AEXX    =    0.0000 exact exchange contribution

 Linear response parameters
   LEPSILON=     F    determine dielectric tensor
   LRPA    =     F    only Hartree local field effects (RPA)
   LNABLA  =     F    use nabla operator in PAW spheres
   LVEL    =     F    velocity operator in full k-point grid
   CSHIFT  =0.1000    complex shift for real part using Kramers Kronig
   OMEGAMAX=  -1.0    maximum frequency
   DEG_THRESHOLD= 0.2000000E-02 threshold for treating states as degnerate
   RTIME   =   -0.100 relaxation time in fs
  (WPLASMAI=    0.000 imaginary part of plasma frequency in eV, 0.658/RTIME)
   DFIELD  = 0.0000000 0.0000000 0.0000000 field for delta impulse in time
 
  Optional k-point grid parameters
   LKPOINTS_OPT  =     F    use optional k-point grid
   KPOINTS_OPT_MODE=     1    mode for optional k-point grid
 
 Orbital magnetization related:
   ORBITALMAG=     F  switch on orbital magnetization
   LCHIMAG   =     F  perturbation theory with respect to B field
   DQ        =  0.001000  dq finite difference perturbation B field
   LLRAUG    =     F  two centre corrections for induced B field
   LBONE     =     F  B-component reconstruction in AE one-centre
   LVGVCALC  =     T  calculate vGv susceptibility
   LVGVAPPL  =     F  apply vGv susceptibility instead of pGv for G=0

 Random number generation:
   RANDOM_GENERATOR = DEFAULT
   PCG_SEED         = not used


--------------------------------------------------------------------------------------------------------


 Static calculation
 charge density and potential will be updated during run
 spin polarized calculation
 Variant of blocked Davidson
 Davidson routine will perform the subspace rotation
 perform sub-space diagonalisation
    after iterative eigenvector-optimisation
 modified Broyden-mixing scheme, WC =      100.0
 initial mixing is a Kerker type mixing with AMIX =  0.4000 and BMIX =      1.0000
 Hartree-type preconditioning will be used
 using additional bands            5
 reciprocal scheme for non local part
 use partial core corrections
 calculate Harris-corrections to forces 
   (improved forces if not selfconsistent)
 use gradient corrections 
 use of overlap-Matrix (Vanderbilt PP)
 Gauss-broadening in eV      SIGMA  =   0.05


--------------------------------------------------------------------------------------------------------


  energy-cutoff  :      520.00
  volume of cell :     3442.80
      direct lattice vectors                 reciprocal lattice vectors
    15.000000000  0.000000000  0.000000000     0.066666667 -0.000000000  0.000000000
     0.000000000 15.100000000  0.000000000     0.000000000  0.066225166  0.000000000
     0.000000000  0.000000000 15.200000000    -0.000000000 -0.000000000  0.065789474

  length of vectors
    15.000000000 15.100000000 15.200000000     0.066666667  0.066225166  0.065789474


 
 k-points in units of 2pi/SCALE and weight: Automatic kpoint scheme                 
   0.00000000  0.00000000  0.00000000       1.000
 
 k-points in reciprocal lattice and weights: Automatic kpoint scheme                 
   0.00000000  0.00000000  0.00000000       1.000
 
 position of ions in fractional coordinates (direct lattice) 
   0.00000000  0.00000000  0.00000000
 
 position of ions in cartesian coordinates  (Angst):
   0.00000000  0.00000000  0.00000000
 


--------------------------------------------------------------------------------------------------------


 use parallel FFT for orbitals z direction half grid
 k-point   1 :   0.0000 0.0000 0.0000  plane waves:   46338

 maximum and minimum number of plane-waves per node :      1457     1434

 maximum number of plane-waves:     46338
 maximum index in each direction: 
   IXMAX=   27   IYMAX=   28   IZMAX=   28
   IXMIN=  -27   IYMIN=  -28   IZMIN=    0


 parallel 3D FFT for wavefunctions:
    minimum data exchange during FFTs selected (reduces bandwidth)
 parallel 3D FFT for charge:
    minimum data exchange during FFTs selected (reduces bandwidth)


 total amount of memory used by VASP MPI-rank0    58583. kBytes
=======================================================================

   base      :      30000. kBytes
   nonl-proj :        233. kBytes
   fftplans  :       8156. kBytes
   grid      :      19898. kBytes
   one-center:         15. kBytes
   wavefun   :        281. kBytes
 
     INWAV:  cpu time      0.0000: real time      0.0000
 Broyden mixing: mesh for mixing (old mesh)
   NGX = 55   NGY = 57   NGZ = 57
  (NGX  =224   NGY  =224   NGZ  =240)
  gives a total of 178695 points

 initial charge density was supplied:
 charge density of overlapping atoms calculated
 number of electron      14.0000000 magnetization       2.0000000
 keeping initial charge density in first step


--------------------------------------------------------------------------------------------------------


 Maximum index for augmentation-charges          875 (set IRDMAX)


--------------------------------------------------------------------------------------------------------


 First call to EWALD:  gamma=   0.117
 Maximum number of real-space cells 3x 3x 3
 Maximum number of reciprocal cells 3x 3x 3

    FEWALD:  cpu time      0.0011: real time      0.0011


--------------------------------------- Ionic step        1  -------------------------------------------




--------------------------------------- Iteration      1(   1)  ---------------------------------------


    POTLOK:  cpu time      0.3173: real time      0.3196
    SETDIJ:  cpu time      0.4570: real time      0.4591
     EDDAV:  cpu time      0.0988: real time      0.1001
       DOS:  cpu time      0.0004: real time      0.0004
    --------------------------------------------
      LOOP:  cpu time      0.8735: real time      0.8793

 eigenvalue-minimisations  :    72
 total energy-change (2. order) : 0.5256847E+02  (-0.4090110E+03)
 number of electron      14.0000000 magnetization       2.0000000
 augmentation part       14.0000000 magnetization       2.0000000

 Free energy of the ion-electron system (eV)
  ---------------------------------------------------
  alpha Z        PSCENC =         0.32527754
  Ewald energy   TEWEN  =      -265.15332961
  -Hartree energ DENC   =     -1360.90850292
  -exchange      EXHF   =         0.00000000
  -V(xc)+E(xc)   XCENC  =        55.49350738
  PAW double counting   =      1568.60005945    -1605.80699798
  entropy T*S    EENTRO =        -0.00000000
  eigenvalues    EBANDS =      -233.08816744
  atomic energy  EATOM  =      1893.10662729
  Solvation  Ediel_sol  =         0.00000000
  ---------------------------------------------------
  free energy    TOTEN  =        52.56847371 eV

  energy without entropy =       52.56847371  energy(sigma->0) =       52.56847371


--------------------------------------------------------------------------------------------------------




--------------------------------------- Iteration      1(   2)  ---------------------------------------


     EDDAV:  cpu time      0.0842: real time      0.0861
       DOS:  cpu time      0.0002: real time      0.0002
    --------------------------------------------
      LOOP:  cpu time      0.0844: real time      0.0863

 eigenvalue-minimisations  :    72
 total energy-change (2. order) :-0.4787321E+02  (-0.4447007E+02)
 number of electron      14.0000000 magnetization       2.0000000
 augmentation part       14.0000000 magnetization       2.0000000

 Free energy of the ion-electron system (eV)
  ---------------------------------------------------
  alpha Z        PSCENC =         0.32527754
  Ewald energy   TEWEN  =      -265.15332961
  -Hartree energ DENC   =     -1360.90850292
  -exchange      EXHF   =         0.00000000
  -V(xc)+E(xc)   XCENC  =        55.49350738
  PAW double counting   =      1568.60005945    -1605.80699798
  entropy T*S    EENTRO =        -0.00482660
  eigenvalues    EBANDS =      -280.95654737
  atomic energy  EATOM  =      1893.10662729
  Solvation  Ediel_sol  =         0.00000000
  ---------------------------------------------------
  free energy    TOTEN  =         4.69526718 eV

  energy without entropy =        4.70009378  energy(sigma->0) =        4.69768048


--------------------------------------------------------------------------------------------------------




--------------------------------------- Iteration      1(   3)  ---------------------------------------


     EDDAV:  cpu time      0.0760: real time      0.0769
       DOS:  cpu time      0.0003: real time      0.0003
    --------------------------------------------
      LOOP:  cpu time      0.0764: real time      0.0772

 eigenvalue-minimisations  :    60
 total energy-change (2. order) :-0.4354252E+01  (-0.4341966E+01)
 number of electron      14.0000000 magnetization       2.0000000
 augmentation part       14.0000000 magnetization       2.0000000

 Free energy of the ion-electron system (eV)
  ---------------------------------------------------
  alpha Z        PSCENC =         0.32527754
  Ewald energy   TEWEN  =      -265.15332961
  -Hartree energ DENC   =     -1360.90850292
  -exchange      EXHF   =         0.00000000
  -V(xc)+E(xc)   XCENC  =        55.49350738
  PAW double counting   =      1568.60005945    -1605.80699798
  entropy T*S    EENTRO =        -0.00034060
  eigenvalues    EBANDS =      -285.31528520
  atomic energy  EATOM  =      1893.10662729
  Solvation  Ediel_sol  =         0.00000000
  ---------------------------------------------------
  free energy    TOTEN  =         0.34101535 eV

  energy without entropy =        0.34135595  energy(sigma->0) =        0.34118565


--------------------------------------------------------------------------------------------------------




--------------------------------------- Iteration      1(   4)  ---------------------------------------


     EDDAV:  cpu time      0.0665: real time      0.0674
       DOS:  cpu time      0.0004: real time      0.0004
    --------------------------------------------
      LOOP:  cpu time      0.0669: real time      0.0678

 eigenvalue-minimisations  :    48
 total energy-change (2. order) :-0.3479503E+00  (-0.3159352E+00)
 number of electron      14.0000000 magnetization       2.0000000
 augmentation part       14.0000000 magnetization       2.0000000

 Free energy of the ion-electron system (eV)
  ---------------------------------------------------
  alpha Z        PSCENC =         0.32527754
  Ewald energy   TEWEN  =      -265.15332961
  -Hartree energ DENC   =     -1360.90850292
  -exchange      EXHF   =         0.00000000
  -V(xc)+E(xc)   XCENC  =        55.49350738
  PAW double counting   =      1568.60005945    -1605.80699798
  entropy T*S    EENTRO =        -0.03818540
  eigenvalues    EBANDS =      -285.62539067
  atomic energy  EATOM  =      1893.10662729
  Solvation  Ediel_sol  =         0.00000000
  ---------------------------------------------------
  free energy    TOTEN  =        -0.00693492 eV

  energy without entropy =        0.03125048  energy(sigma->0) =        0.01215778


--------------------------------------------------------------------------------------------------------




--------------------------------------- Iteration      1(   5)  ---------------------------------------


     EDDAV:  cpu time      0.0717: real time      0.0726
       DOS:  cpu time      0.0004: real time      0.0004
    CHARGE:  cpu time      0.0268: real time      0.0271
    MIXING:  cpu time      0.0046: real time      0.0046
    --------------------------------------------
      LOOP:  cpu time      0.1035: real time      0.1048

 eigenvalue-minimisations  :    56
 total energy-change (2. order) :-0.1510788E-01  (-0.1472174E-01)
 number of electron      14.0000010 magnetization       2.0000000
 augmentation part        7.2804566 magnetization      -0.1122844

 Broyden mixing:
  rms(total) = 0.10100E+01    rms(broyden)= 0.10100E+01
  rms(prec ) = 0.10100E+01
  weight for this iteration     100.00

 Free energy of the ion-electron system (eV)
  ---------------------------------------------------
  alpha Z        PSCENC =         0.32527754
  Ewald energy   TEWEN  =      -265.15332961
  -Hartree energ DENC   =     -1360.90850292
  -exchange      EXHF   =         0.00000000
  -V(xc)+E(xc)   XCENC  =        55.49350738
  PAW double counting   =      1568.60005945    -1605.80699798
  entropy T*S    EENTRO =        -0.03856552
  eigenvalues    EBANDS =      -285.64011843
  atomic energy  EATOM  =      1893.10662729
  Solvation  Ediel_sol  =         0.00000000
  ---------------------------------------------------
  free energy    TOTEN  =        -0.02204280 eV

  energy without entropy =        0.01652272  energy(sigma->0) =       -0.00276004


--------------------------------------------------------------------------------------------------------




--------------------------------------- Iteration      1(   6)  ---------------------------------------


    POTLOK:  cpu time      0.3445: real time      0.3471
    SETDIJ:  cpu time      0.4564: real time      0.4586
     EDDAV:  cpu time      0.0677: real time      0.0684
       DOS:  cpu time      0.0004: real time      0.0004
    CHARGE:  cpu time      0.0251: real time      0.0254
    MIXING:  cpu time      0.0044: real time      0.0044
    --------------------------------------------
      LOOP:  cpu time      0.8985: real time      0.9043

 eigenvalue-minimisations  :    48
 total energy-change (2. order) :-0.3924357E+00  (-0.9153601E-01)
 number of electron      14.0000010 magnetization       2.0000000
 augmentation part        7.2801259 magnetization      -0.1508300

 Broyden mixing:
  rms(total) = 0.39520E+00    rms(broyden)= 0.39520E+00
  rms(prec ) = 0.39568E+00
  weight for this iteration     100.00

 eigenvalues of (default mixing * dielectric matrix)
  average eigenvalue GAMMA=   0.7189
  0.7189

 Free energy of the ion-electron system (eV)
  ---------------------------------------------------
  alpha Z        PSCENC =         0.32527754
  Ewald energy   TEWEN  =      -265.15332961
  -Hartree energ DENC   =     -1361.40595594
  -exchange      EXHF   =         0.00000000
  -V(xc)+E(xc)   XCENC  =        55.99476996
  PAW double counting   =      1568.25304060    -1605.62159154
  entropy T*S    EENTRO =        -0.03856261
  eigenvalues    EBANDS =      -285.87475415
  atomic energy  EATOM  =      1893.10662729
  Solvation  Ediel_sol  =         0.00000000
  ---------------------------------------------------
  free energy    TOTEN  =        -0.41447845 eV

  energy without entropy =       -0.37591585  energy(sigma->0) =       -0.39519715


--------------------------------------------------------------------------------------------------------




--------------------------------------- Iteration      1(   7)  ---------------------------------------


    POTLOK:  cpu time      0.3497: real time      0.3522
    SETDIJ:  cpu time      0.4569: real time      0.4590
     EDDAV:  cpu time      0.0655: real time      0.0662
       DOS:  cpu time      0.0004: real time      0.0004
    CHARGE:  cpu time      0.0261: real time      0.0265
    MIXING:  cpu time      0.0043: real time      0.0043
    --------------------------------------------
      LOOP:  cpu time      0.9029: real time      0.9086

 eigenvalue-minimisations  :    48
 total energy-change (2. order) :-0.1894348E+00  (-0.1795192E-01)
 number of electron      14.0000010 magnetization       2.0000000
 augmentation part        7.2801348 magnetization      -0.1253308

 Broyden mixing:
  rms(total) = 0.24279E-01    rms(broyden)= 0.24279E-01
  rms(prec ) = 0.25454E-01
  weight for this iteration     100.00

 eigenvalues of (default mixing * dielectric matrix)
  average eigenvalue GAMMA=   0.7895
  0.8654  0.7137

 Free energy of the ion-electron system (eV)
  ---------------------------------------------------
  alpha Z        PSCENC =         0.32527754
  Ewald energy   TEWEN  =      -265.15332961
  -Hartree energ DENC   =     -1362.19133740
  -exchange      EXHF   =         0.00000000
  -V(xc)+E(xc)   XCENC  =        55.65392289
  PAW double counting   =      1582.82128442    -1620.27646950
  entropy T*S    EENTRO =        -0.03854815
  eigenvalues    EBANDS =      -284.85134073
  atomic energy  EATOM  =      1893.10662729
  Solvation  Ediel_sol  =         0.00000000
  ---------------------------------------------------
  free energy    TOTEN  =        -0.60391325 eV

  energy without entropy =       -0.56536510  energy(sigma->0) =       -0.58463917


--------------------------------------------------------------------------------------------------------




--------------------------------------- Iteration      1(   8)  ---------------------------------------


    POTLOK:  cpu time      0.3148: real time      0.3169
    SETDIJ:  cpu time      0.4562: real time      0.4586
     EDDAV:  cpu time      0.0700: real time      0.0707
       DOS:  cpu time      0.0004: real time      0.0004
    CHARGE:  cpu time      0.0258: real time      0.0261
    MIXING:  cpu time      0.0045: real time      0.0046
    --------------------------------------------
      LOOP:  cpu time      0.8717: real time      0.8773

 eigenvalue-minimisations  :    52
 total energy-change (2. order) :-0.2937604E-01  (-0.2066790E-02)
 number of electron      14.0000010 magnetization       2.0000000
 augmentation part        7.2810028 magnetization      -0.1229273

 Broyden mixing:
  rms(total) = 0.13916E-01    rms(broyden)= 0.13916E-01
  rms(prec ) = 0.15106E-01
  weight for this iteration     100.00

 eigenvalues of (default mixing * dielectric matrix)
  average eigenvalue GAMMA=   0.8397
  1.1288  0.7490  0.6412

 Free energy of the ion-electron system (eV)
  ---------------------------------------------------
  alpha Z        PSCENC =         0.32527754
  Ewald energy   TEWEN  =      -265.15332961
  -Hartree energ DENC   =     -1362.51454631
  -exchange      EXHF   =         0.00000000
  -V(xc)+E(xc)   XCENC  =        55.62037640
  PAW double counting   =      1588.25121197    -1625.70799516
  entropy T*S    EENTRO =        -0.03848409
  eigenvalues    EBANDS =      -284.52242732
  atomic energy  EATOM  =      1893.10662729
  Solvation  Ediel_sol  =         0.00000000
  ---------------------------------------------------
  free energy    TOTEN  =        -0.63328929 eV

  energy without entropy =       -0.59480519  energy(sigma->0) =       -0.61404724


--------------------------------------------------------------------------------------------------------




--------------------------------------- Iteration      1(   9)  ---------------------------------------


    POTLOK:  cpu time      0.3451: real time      0.3476
    SETDIJ:  cpu time      0.4569: real time      0.4591
     EDDAV:  cpu time      0.0746: real time      0.0754
       DOS:  cpu time      0.0004: real time      0.0004
    CHARGE:  cpu time      0.0238: real time      0.0242
    MIXING:  cpu time      0.0045: real time      0.0046
    --------------------------------------------
      LOOP:  cpu time      0.9053: real time      0.9112

 eigenvalue-minimisations  :    64
 total energy-change (2. order) :-0.2336100E-01  (-0.3976307E-03)
 number of electron      14.0000010 magnetization       2.0000000
 augmentation part        7.2820902 magnetization      -0.1231620

 Broyden mixing:
  rms(total) = 0.14878E-01    rms(broyden)= 0.14878E-01
  rms(prec ) = 0.17867E-01
  weight for this iteration     100.00

 eigenvalues of (default mixing * dielectric matrix)
  average eigenvalue GAMMA=   0.6364
  1.1292  0.7490  0.6410  0.0264

 Free energy of the ion-electron system (eV)
  ---------------------------------------------------
  alpha Z        PSCENC =         0.32527754
  Ewald energy   TEWEN  =      -265.15332961
  -Hartree energ DENC   =     -1362.68383666
  -exchange      EXHF   =         0.00000000
  -V(xc)+E(xc)   XCENC  =        55.60366592
  PAW double counting   =      1591.92769159    -1629.35573222
  entropy T*S    EENTRO =        -0.03817220
  eigenvalues    EBANDS =      -284.38884195
  atomic energy  EATOM  =      1893.10662729
  Solvation  Ediel_sol  =         0.00000000
  ---------------------------------------------------
  free energy    TOTEN  =        -0.65665029 eV

  energy without entropy =       -0.61847809  energy(sigma->0) =       -0.63756419


--------------------------------------------------------------------------------------------------------




--------------------------------------- Iteration      1(  10)  ---------------------------------------


    POTLOK:  cpu time      0.3214: real time      0.3236
    SETDIJ:  cpu time      0.4567: real time      0.4588
     EDDAV:  cpu time      0.0703: real time      0.0710
       DOS:  cpu time      0.0004: real time      0.0004
    CHARGE:  cpu time      0.0240: real time      0.0243
    MIXING:  cpu time      0.0048: real time      0.0048
    --------------------------------------------
      LOOP:  cpu time      0.8775: real time      0.8829

 eigenvalue-minimisations  :    56
 total energy-change (2. order) : 0.4660085E-02  (-0.1561196E-04)
 number of electron      14.0000010 magnetization       2.0000000
 augmentation part        7.2821216 magnetization      -0.1231683

 Broyden mixing:
  rms(total) = 0.12520E-01    rms(broyden)= 0.12520E-01
  rms(prec ) = 0.14839E-01
  weight for this iteration     100.00

 eigenvalues of (default mixing * dielectric matrix)
  average eigenvalue GAMMA=   0.9190
  1.4865  0.9122  0.7467  0.6367  0.8130

 Free energy of the ion-electron system (eV)
  ---------------------------------------------------
  alpha Z        PSCENC =         0.32527754
  Ewald energy   TEWEN  =      -265.15332961
  -Hartree energ DENC   =     -1362.67556111
  -exchange      EXHF   =         0.00000000
  -V(xc)+E(xc)   XCENC  =        55.60773567
  PAW double counting   =      1591.60988868    -1629.04402193
  entropy T*S    EENTRO =        -0.03831981
  eigenvalues    EBANDS =      -284.39028694
  atomic energy  EATOM  =      1893.10662729
  Solvation  Ediel_sol  =         0.00000000
  ---------------------------------------------------
  free energy    TOTEN  =        -0.65199020 eV

  energy without entropy =       -0.61367040  energy(sigma->0) =       -0.63283030


--------------------------------------------------------------------------------------------------------




--------------------------------------- Iteration      1(  11)  ---------------------------------------


    POTLOK:  cpu time      0.3198: real time      0.3220
    SETDIJ:  cpu time      0.4567: real time      0.4590
     EDDAV:  cpu time      0.0673: real time      0.0680
       DOS:  cpu time      0.0004: real time      0.0004
    CHARGE:  cpu time      0.0255: real time      0.0258
    MIXING:  cpu time      0.0050: real time      0.0050
    --------------------------------------------
      LOOP:  cpu time      0.8747: real time      0.8802

 eigenvalue-minimisations  :    48
 total energy-change (2. order) :-0.1240009E-01  (-0.1125859E-03)
 number of electron      14.0000010 magnetization       2.0000000
 augmentation part        7.2828308 magnetization      -0.1230667

 Broyden mixing:
  rms(total) = 0.65868E-02    rms(broyden)= 0.65865E-02
  rms(prec ) = 0.77228E-02
  weight for this iteration     100.00

 eigenvalues of (default mixing * dielectric matrix)
  average eigenvalue GAMMA=   0.9471
  0.9140  1.4586  1.0854  0.7858  0.7858  0.6533

 Free energy of the ion-electron system (eV)
  ---------------------------------------------------
  alpha Z        PSCENC =         0.32527754
  Ewald energy   TEWEN  =      -265.15332961
  -Hartree energ DENC   =     -1362.70907012
  -exchange      EXHF   =         0.00000000
  -V(xc)+E(xc)   XCENC  =        55.59582393
  PAW double counting   =      1594.43736645    -1631.82867787
  entropy T*S    EENTRO =        -0.03852026
  eigenvalues    EBANDS =      -284.39988766
  atomic energy  EATOM  =      1893.10662729
  Solvation  Ediel_sol  =         0.00000000
  ---------------------------------------------------
  free energy    TOTEN  =        -0.66439029 eV

  energy without entropy =       -0.62587004  energy(sigma->0) =       -0.64513017


--------------------------------------------------------------------------------------------------------




--------------------------------------- Iteration      1(  12)  ---------------------------------------


    POTLOK:  cpu time      0.3750: real time      0.3773
    SETDIJ:  cpu time      0.4570: real time      0.4592
     EDDAV:  cpu time      0.0670: real time      0.0676
       DOS:  cpu time      0.0004: real time      0.0004
    CHARGE:  cpu time      0.0250: real time      0.0254
    MIXING:  cpu time      0.0051: real time      0.0052
    --------------------------------------------
      LOOP:  cpu time      0.9295: real time      0.9350

 eigenvalue-minimisations  :    48
 total energy-change (2. order) :-0.1586591E-01  (-0.4413280E-04)
 number of electron      14.0000010 magnetization       2.0000000
 augmentation part        7.2831031 magnetization      -0.1235935

 Broyden mixing:
  rms(total) = 0.79211E-02    rms(broyden)= 0.79210E-02
  rms(prec ) = 0.95442E-02
  weight for this iteration     100.00

 eigenvalues of (default mixing * dielectric matrix)
  average eigenvalue GAMMA=   0.8316
  0.9022  1.4703  1.0860  0.7864  0.7864  0.6526  0.1371

 Free energy of the ion-electron system (eV)
  ---------------------------------------------------
  alpha Z        PSCENC =         0.32527754
  Ewald energy   TEWEN  =      -265.15332961
  -Hartree energ DENC   =     -1362.73074301
  -exchange      EXHF   =         0.00000000
  -V(xc)+E(xc)   XCENC  =        55.58027483
  PAW double counting   =      1595.50355644    -1632.86135681
  entropy T*S    EENTRO =        -0.03845909
  eigenvalues    EBANDS =      -284.41210379
  atomic energy  EATOM  =      1893.10662729
  Solvation  Ediel_sol  =         0.00000000
  ---------------------------------------------------
  free energy    TOTEN  =        -0.68025620 eV

  energy without entropy =       -0.64179712  energy(sigma->0) =       -0.66102666


--------------------------------------------------------------------------------------------------------




--------------------------------------- Iteration      1(  13)  ---------------------------------------


    POTLOK:  cpu time      0.3824: real time      0.3850
    SETDIJ:  cpu time      0.4571: real time      0.4593
     EDDAV:  cpu time      0.0703: real time      0.0709
       DOS:  cpu time      0.0004: real time      0.0004
    CHARGE:  cpu time      0.0259: real time      0.0262
    MIXING:  cpu time      0.0060: real time      0.0060
    --------------------------------------------
      LOOP:  cpu time      0.9420: real time      0.9478

 eigenvalue-minimisations  :    52
 total energy-change (2. order) : 0.2296251E-02  (-0.6282668E-05)
 number of electron      14.0000010 magnetization       2.0000000
 augmentation part        7.2831193 magnetization      -0.1237015

 Broyden mixing:
  rms(total) = 0.54519E-02    rms(broyden)= 0.54518E-02
  rms(prec ) = 0.64016E-02
  weight for this iteration     100.00

 eigenvalues of (default mixing * dielectric matrix)
  average eigenvalue GAMMA=   1.0084
  2.0122  0.9083  0.9083  1.3731  0.8460  0.7340  0.6426  0.6426

 Free energy of the ion-electron system (eV)
  ---------------------------------------------------
  alpha Z        PSCENC =         0.32527754
  Ewald energy   TEWEN  =      -265.15332961
  -Hartree energ DENC   =     -1362.72496642
  -exchange      EXHF   =         0.00000000
  -V(xc)+E(xc)   XCENC  =        55.58204574
  PAW double counting   =      1595.53301588    -1632.89171385
  entropy T*S    EENTRO =        -0.03853319
  eigenvalues    EBANDS =      -284.41638335
  atomic energy  EATOM  =      1893.10662729
  Solvation  Ediel_sol  =         0.00000000
  ---------------------------------------------------
  free energy    TOTEN  =        -0.67795995 eV

  energy without entropy =       -0.63942677  energy(sigma->0) =       -0.65869336


--------------------------------------------------------------------------------------------------------




--------------------------------------- Iteration      1(  14)  ---------------------------------------


    POTLOK:  cpu time      0.3546: real time      0.3570
    SETDIJ:  cpu time      0.4565: real time      0.4588
     EDDAV:  cpu time      0.0702: real time      0.0708
       DOS:  cpu time      0.0005: real time      0.0005
    CHARGE:  cpu time      0.0250: real time      0.0254
    MIXING:  cpu time      0.0067: real time      0.0067
    --------------------------------------------
      LOOP:  cpu time      0.9135: real time      0.9193

 eigenvalue-minimisations  :    52
 total energy-change (2. order) :-0.7829551E-02  (-0.4253240E-04)
 number of electron      14.0000010 magnetization       2.0000000
 augmentation part        7.2834329 magnetization      -0.1237984

 Broyden mixing:
  rms(total) = 0.23445E-02    rms(broyden)= 0.23441E-02
  rms(prec ) = 0.27609E-02
  weight for this iteration     100.00

 eigenvalues of (default mixing * dielectric matrix)
  average eigenvalue GAMMA=   1.0397
  2.1790  0.9309  0.9309  1.4965  1.0120  0.7615  0.7054  0.7054  0.6354

 Free energy of the ion-electron system (eV)
  ---------------------------------------------------
  alpha Z        PSCENC =         0.32527754
  Ewald energy   TEWEN  =      -265.15332961
  -Hartree energ DENC   =     -1362.75261872
  -exchange      EXHF   =         0.00000000
  -V(xc)+E(xc)   XCENC  =        55.57517485
  PAW double counting   =      1596.48795390    -1633.82329893
  entropy T*S    EENTRO =        -0.03856441
  eigenvalues    EBANDS =      -284.41301142
  atomic energy  EATOM  =      1893.10662729
  Solvation  Ediel_sol  =         0.00000000
  ---------------------------------------------------
  free energy    TOTEN  =        -0.68578950 eV

  energy without entropy =       -0.64722510  energy(sigma->0) =       -0.66650730


--------------------------------------------------------------------------------------------------------




--------------------------------------- Iteration      1(  15)  ---------------------------------------


    POTLOK:  cpu time      0.3613: real time      0.3634
    SETDIJ:  cpu time      0.4566: real time      0.4587
     EDDAV:  cpu time      0.0672: real time      0.0679
       DOS:  cpu time      0.0004: real time      0.0004
    CHARGE:  cpu time      0.0260: real time      0.0264
    MIXING:  cpu time      0.0064: real time      0.0065
    --------------------------------------------
      LOOP:  cpu time      0.9179: real time      0.9232

 eigenvalue-minimisations  :    48
 total energy-change (2. order) :-0.7389013E-02  (-0.1371603E-04)
 number of electron      14.0000010 magnetization       2.0000000
 augmentation part        7.2835390 magnetization      -0.1238801

 Broyden mixing:
  rms(total) = 0.35420E-02    rms(broyden)= 0.35420E-02
  rms(prec ) = 0.41179E-02
  weight for this iteration     100.00

 eigenvalues of (default mixing * dielectric matrix)
  average eigenvalue GAMMA=   1.0047
  2.2379  0.9418  0.9418  1.5281  1.0060  0.7370  0.7370  0.7566  0.6369  0.5237

 Free energy of the ion-electron system (eV)
  ---------------------------------------------------
  alpha Z        PSCENC =         0.32527754
  Ewald energy   TEWEN  =      -265.15332961
  -Hartree energ DENC   =     -1362.78583462
  -exchange      EXHF   =         0.00000000
  -V(xc)+E(xc)   XCENC  =        55.56872364
  PAW double counting   =      1596.50447488    -1633.82787703
  entropy T*S    EENTRO =        -0.03856368
  eigenvalues    EBANDS =      -284.39267693
  atomic energy  EATOM  =      1893.10662729
  Solvation  Ediel_sol  =         0.00000000
  ---------------------------------------------------
  free energy    TOTEN  =        -0.69317852 eV

  energy without entropy =       -0.65461483  energy(sigma->0) =       -0.67389668


--------------------------------------------------------------------------------------------------------




--------------------------------------- Iteration      1(  16)  ---------------------------------------


    POTLOK:  cpu time      0.3275: real time      0.3305
    SETDIJ:  cpu time      0.4567: real time      0.4589
     EDDAV:  cpu time      0.0770: real time      0.0780
       DOS:  cpu time      0.0004: real time      0.0004
    CHARGE:  cpu time      0.0256: real time      0.0259
    MIXING:  cpu time      0.0058: real time      0.0057
    --------------------------------------------
      LOOP:  cpu time      0.8930: real time      0.8995

 eigenvalue-minimisations  :    64
 total energy-change (2. order) :-0.1372533E-02  (-0.1572106E-05)
 number of electron      14.0000010 magnetization       2.0000000
 augmentation part        7.2835838 magnetization      -0.1239263

 Broyden mixing:
  rms(total) = 0.45964E-02    rms(broyden)= 0.45964E-02
  rms(prec ) = 0.53126E-02
  weight for this iteration     100.00

 eigenvalues of (default mixing * dielectric matrix)
  average eigenvalue GAMMA=   1.0550
  2.4645  1.6177  0.9628  0.9628  0.8004  1.1881  0.8261  0.7566  0.7268  0.6662
  0.6326

 Free energy of the ion-electron system (eV)
  ---------------------------------------------------
  alpha Z        PSCENC =         0.32527754
  Ewald energy   TEWEN  =      -265.15332961
  -Hartree energ DENC   =     -1362.79113795
  -exchange      EXHF   =         0.00000000
  -V(xc)+E(xc)   XCENC  =        55.56723296
  PAW double counting   =      1596.48625186    -1633.80650088
  entropy T*S    EENTRO =        -0.03856182
  eigenvalues    EBANDS =      -284.39041045
  atomic energy  EATOM  =      1893.10662729
  Solvation  Ediel_sol  =         0.00000000
  ---------------------------------------------------
  free energy    TOTEN  =        -0.69455105 eV

  energy without entropy =       -0.65598923  energy(sigma->0) =       -0.67527014


--------------------------------------------------------------------------------------------------------




--------------------------------------- Iteration      1(  17)  ---------------------------------------


    POTLOK:  cpu time      0.3497: real time      0.3524
    SETDIJ:  cpu time      0.4569: real time      0.4591
     EDDAV:  cpu time      0.0842: real time      0.0850
       DOS:  cpu time      0.0005: real time      0.0005
    CHARGE:  cpu time      0.0266: real time      0.0269
    MIXING:  cpu time      0.0064: real time      0.0065
    --------------------------------------------
      LOOP:  cpu time      0.9243: real time      0.9304

 eigenvalue-minimisations  :    48
 total energy-change (2. order) :-0.1054078E-02  (-0.2676807E-05)
 number of electron      14.0000010 magnetization       2.0000000
 augmentation part        7.2836170 magnetization      -0.1239218

 Broyden mixing:
  rms(total) = 0.40537E-02    rms(broyden)= 0.40537E-02
  rms(prec ) = 0.46902E-02
  weight for this iteration     100.00

 eigenvalues of (default mixing * dielectric matrix)
  average eigenvalue GAMMA=   1.0007
  2.4847  1.6363  0.9839  0.9839  0.8274  1.1831  0.8458  0.7573  0.7373  0.6670
  0.6312  0.2709

 Free energy of the ion-electron system (eV)
  ---------------------------------------------------
  alpha Z        PSCENC =         0.32527754
  Ewald energy   TEWEN  =      -265.15332961
  -Hartree energ DENC   =     -1362.80054315
  -exchange      EXHF   =         0.00000000
  -V(xc)+E(xc)   XCENC  =        55.56641008
  PAW double counting   =      1596.48168672    -1633.79931673
  entropy T*S    EENTRO =        -0.03856325
  eigenvalues    EBANDS =      -284.38385402
  atomic energy  EATOM  =      1893.10662729
  Solvation  Ediel_sol  =         0.00000000
  ---------------------------------------------------
  free energy    TOTEN  =        -0.69560513 eV

  energy without entropy =       -0.65704188  energy(sigma->0) =       -0.67632350


--------------------------------------------------------------------------------------------------------




--------------------------------------- Iteration      1(  18)  ---------------------------------------


    POTLOK:  cpu time      0.3287: real time      0.3312
    SETDIJ:  cpu time      0.4568: real time      0.4591
     EDDAV:  cpu time      0.0657: real time      0.0664
       DOS:  cpu time      0.0004: real time      0.0004
    CHARGE:  cpu time      0.0256: real time      0.0259
    MIXING:  cpu time      0.0060: real time      0.0060
    --------------------------------------------
      LOOP:  cpu time      0.8832: real time      0.8890

 eigenvalue-minimisations  :    48
 total energy-change (2. order) :-0.3870234E-03  (-0.2300792E-06)
 number of electron      14.0000010 magnetization       2.0000000
 augmentation part        7.2836193 magnetization      -0.1239487

 Broyden mixing:
  rms(total) = 0.42898E-02    rms(broyden)= 0.42898E-02
  rms(prec ) = 0.49510E-02
  weight for this iteration     100.00

 eigenvalues of (default mixing * dielectric matrix)
  average eigenvalue GAMMA=   1.1242
  2.7775  1.7204  1.2805  1.2805  0.9185  0.9185  1.2791  0.9661  0.7388  0.7388
  0.7134  0.6413  0.6413

 Free energy of the ion-electron system (eV)
  ---------------------------------------------------
  alpha Z        PSCENC =         0.32527754
  Ewald energy   TEWEN  =      -265.15332961
  -Hartree energ DENC   =     -1362.80178500
  -exchange      EXHF   =         0.00000000
  -V(xc)+E(xc)   XCENC  =        55.56594054
  PAW double counting   =      1596.46132598    -1633.77818856
  entropy T*S    EENTRO =        -0.03856284
  eigenvalues    EBANDS =      -284.38329751
  atomic energy  EATOM  =      1893.10662729
  Solvation  Ediel_sol  =         0.00000000
  ---------------------------------------------------
  free energy    TOTEN  =        -0.69599215 eV

  energy without entropy =       -0.65742932  energy(sigma->0) =       -0.67671073


--------------------------------------------------------------------------------------------------------




--------------------------------------- Iteration      1(  19)  ---------------------------------------


    POTLOK:  cpu time      0.3360: real time      0.3390
    SETDIJ:  cpu time      0.4567: real time      0.4589
     EDDAV:  cpu time      0.0634: real time      0.0642
       DOS:  cpu time      0.0004: real time      0.0004
    CHARGE:  cpu time      0.0242: real time      0.0245
    MIXING:  cpu time      0.0061: real time      0.0061
    --------------------------------------------
      LOOP:  cpu time      0.8867: real time      0.8932

 eigenvalue-minimisations  :    48
 total energy-change (2. order) :-0.3173169E-03  (-0.2755177E-05)
 number of electron      14.0000010 magnetization       2.0000000
 augmentation part        7.2835983 magnetization      -0.1239875

 Broyden mixing:
  rms(total) = 0.22183E-02    rms(broyden)= 0.22183E-02
  rms(prec ) = 0.26045E-02
  weight for this iteration     100.00

 eigenvalues of (default mixing * dielectric matrix)
  average eigenvalue GAMMA=   1.2000
  2.9816  2.1025  1.9887  1.0865  0.9644  0.9644  1.3207  1.1616  0.7781  0.7781
  0.7644  0.6394  0.6394  0.6305

 Free energy of the ion-electron system (eV)
  ---------------------------------------------------
  alpha Z        PSCENC =         0.32527754
  Ewald energy   TEWEN  =      -265.15332961
  -Hartree energ DENC   =     -1362.80687001
  -exchange      EXHF   =         0.00000000
  -V(xc)+E(xc)   XCENC  =        55.56575789
  PAW double counting   =      1596.44245553    -1633.75719971
  entropy T*S    EENTRO =        -0.03856434
  eigenvalues    EBANDS =      -284.38046404
  atomic energy  EATOM  =      1893.10662729
  Solvation  Ediel_sol  =         0.00000000
  ---------------------------------------------------
  free energy    TOTEN  =        -0.69630947 eV

  energy without entropy =       -0.65774513  energy(sigma->0) =       -0.67702730


--------------------------------------------------------------------------------------------------------




--------------------------------------- Iteration      1(  20)  ---------------------------------------


    POTLOK:  cpu time      0.3296: real time      0.3318
    SETDIJ:  cpu time      0.4571: real time      0.4593
     EDDAV:  cpu time      0.0656: real time      0.0665
       DOS:  cpu time      0.0004: real time      0.0004
    CHARGE:  cpu time      0.0259: real time      0.0264
    MIXING:  cpu time      0.0063: real time      0.0064
    --------------------------------------------
      LOOP:  cpu time      0.8849: real time      0.8907

 eigenvalue-minimisations  :    48
 total energy-change (2. order) :-0.1163716E-02  (-0.4046429E-05)
 number of electron      14.0000010 magnetization       2.0000000
 augmentation part        7.2836508 magnetization      -0.1239872

 Broyden mixing:
  rms(total) = 0.68298E-03    rms(broyden)= 0.68296E-03
  rms(prec ) = 0.96752E-03
  weight for this iteration     100.00

 eigenvalues of (default mixing * dielectric matrix)
  average eigenvalue GAMMA=   1.2066
  3.0548  2.1484  2.2531  1.0795  0.9608  0.9608  1.3972  1.2136  0.8338  0.8338
  0.7334  0.6792  0.6792  0.6479  0.6242

 Free energy of the ion-electron system (eV)
  ---------------------------------------------------
  alpha Z        PSCENC =         0.32527754
  Ewald energy   TEWEN  =      -265.15332961
  -Hartree energ DENC   =     -1362.81933711
  -exchange      EXHF   =         0.00000000
  -V(xc)+E(xc)   XCENC  =        55.56463138
  PAW double counting   =      1596.21795837    -1633.53396698
  entropy T*S    EENTRO =        -0.03856504
  eigenvalues    EBANDS =      -284.36676903
  atomic energy  EATOM  =      1893.10662729
  Solvation  Ediel_sol  =         0.00000000
  ---------------------------------------------------
  free energy    TOTEN  =        -0.69747318 eV

  energy without entropy =       -0.65890815  energy(sigma->0) =       -0.67819067


--------------------------------------------------------------------------------------------------------




--------------------------------------- Iteration      1(  21)  ---------------------------------------


    POTLOK:  cpu time      0.3309: real time      0.3330
    SETDIJ:  cpu time      0.4570: real time      0.4591
     EDDAV:  cpu time      0.0636: real time      0.0642
       DOS:  cpu time      0.0004: real time      0.0004
    CHARGE:  cpu time      0.0238: real time      0.0241
    MIXING:  cpu time      0.0065: real time      0.0066
    --------------------------------------------
      LOOP:  cpu time      0.8822: real time      0.8874

 eigenvalue-minimisations  :    48
 total energy-change (2. order) :-0.7985607E-03  (-0.9640902E-06)
 number of electron      14.0000010 magnetization       2.0000000
 augmentation part        7.2836659 magnetization      -0.1240103

 Broyden mixing:
  rms(total) = 0.76121E-03    rms(broyden)= 0.76120E-03
  rms(prec ) = 0.99912E-03
  weight for this iteration     100.00

 eigenvalues of (default mixing * dielectric matrix)
  average eigenvalue GAMMA=   1.1483
  3.0412  2.1443  2.2804  1.0796  0.9615  0.9615  1.4033  1.2175  0.8757  0.8128
  0.7146  0.7146  0.6591  0.6591  0.6258  0.2226

 Free energy of the ion-electron system (eV)
  ---------------------------------------------------
  alpha Z        PSCENC =         0.32527754
  Ewald energy   TEWEN  =      -265.15332961
  -Hartree energ DENC   =     -1362.83337444
  -exchange      EXHF   =         0.00000000
  -V(xc)+E(xc)   XCENC  =        55.56390824
  PAW double counting   =      1596.07870235    -1633.39673785
  entropy T*S    EENTRO =        -0.03856499
  eigenvalues    EBANDS =      -284.35078028
  atomic energy  EATOM  =      1893.10662729
  Solvation  Ediel_sol  =         0.00000000
  ---------------------------------------------------
  free energy    TOTEN  =        -0.69827175 eV

  energy without entropy =       -0.65970676  energy(sigma->0) =       -0.67898925


--------------------------------------------------------------------------------------------------------




--------------------------------------- Iteration      1(  22)  ---------------------------------------


    POTLOK:  cpu time      0.3464: real time      0.3490
    SETDIJ:  cpu time      0.4565: real time      0.4587
     EDDAV:  cpu time      0.0688: real time      0.0696
       DOS:  cpu time      0.0004: real time      0.0004
    --------------------------------------------
      LOOP:  cpu time      0.8720: real time      0.8776

 eigenvalue-minimisations  :    52
 total energy-change (2. order) :-0.5071539E-05  (-0.2141854E-06)
 number of electron      14.0000010 magnetization       2.0000000
 augmentation part        7.2836659 magnetization      -0.1240103

 Free energy of the ion-electron system (eV)
  ---------------------------------------------------
  alpha Z        PSCENC =         0.32527754
  Ewald energy   TEWEN  =      -265.15332961
  -Hartree energ DENC   =     -1362.83353546
  -exchange      EXHF   =         0.00000000
  -V(xc)+E(xc)   XCENC  =        55.56390577
  PAW double counting   =      1596.07948638    -1633.39751482
  entropy T*S    EENTRO =        -0.03856496
  eigenvalues    EBANDS =      -284.35062895
  atomic energy  EATOM  =      1893.10662729
  Solvation  Ediel_sol  =         0.00000000
  ---------------------------------------------------
  free energy    TOTEN  =        -0.69827682 eV

  energy without entropy =       -0.65971185  energy(sigma->0) =       -0.67899433


--------------------------------------------------------------------------------------------------------




 average (electrostatic) potential at core
  the test charge radii are     1.0894
  (the norm of the test charge is              1.0000)
       1-111.2396
 
 
 
 E-fermi :  -4.0412     XC(G=0):  -0.4037     alpha+bet : -0.1050

 Fermi energy:        -4.0411918476

 spin component 1

 k-point     1 :       0.0000    0.0000    0.0000
  band No.  band energies     occupation 
      1     -25.6531      1.00000
      2     -25.6531      1.00000
      3     -25.6525      1.00000
      4     -25.6521      1.00000
      5     -25.6520      1.00000
      6     -10.8697      1.00000
      7      -4.0567      0.66914
      8      -4.0564      0.66674
      9      -4.0562      0.66411
     10      -0.5603      0.00000
     11       0.3240      0.00000
     12       0.3261      0.00000
 Fermi energy:        -4.0411918476

 spin component 2

 k-point     1 :       0.0000    0.0000    0.0000
  band No.  band energies     occupation 
      1     -25.4863      1.00000
      2     -25.4863      1.00000
      3     -25.4854      1.00000
      4     -25.4849      1.00000
      5     -25.4848      1.00000
      6      -9.6777      1.00000
      7      -2.7566      0.00000
      8      -2.7549      0.00000
      9      -2.7526      0.00000
     10      -0.0799      0.00000
     11       0.5608      0.00000
     12       0.5655      0.00000


--------------------------------------------------------------------------------------------------------


 soft charge-density along one line, spin component           1
         0         1         2         3         4         5         6         7         8         9
 total charge-density along one line
 
 soft charge-density along one line, spin component           2
         0         1         2         3         4         5         6         7         8         9
 total charge-density along one line
 
 pseudopotential strength for first ion, spin component:           1
-25.274   0.000   0.000   0.000  -0.000   7.702  -0.000  -0.000
  0.000 -25.275   0.000  -0.000  -0.000  -0.000   7.702  -0.000
  0.000   0.000 -25.275   0.000  -0.000  -0.000  -0.000   7.702
  0.000  -0.000   0.000 -25.274   0.000  -0.000   0.000  -0.000
 -0.000  -0.000  -0.000   0.000 -25.274   0.000   0.000   0.000
  7.702  -0.000  -0.000  -0.000   0.000   2.357   0.000   0.000
 -0.000   7.702  -0.000   0.000   0.000   0.000   2.357   0.000
 -0.000  -0.000   7.702  -0.000   0.000   0.000   0.000   2.357
 -0.000   0.000  -0.000   7.702  -0.000   0.000  -0.000   0.000
  0.000   0.000   0.000  -0.000   7.702  -0.000  -0.000  -0.000
 -0.000   0.000  -0.000   0.000   0.000   0.000  -0.000   0.000
  0.000  -0.000   0.000  -0.000  -0.000  -0.000   0.000  -0.000
 -0.000  -0.000   0.000  -0.000   0.000  -0.000   0.000  -0.000
 -0.000   0.000  -0.000  -0.000  -0.000   0.000  -0.000  -0.000
  0.000  -0.000   0.000  -0.000  -0.000   0.000   0.000  -0.000
 -0.000  -0.000   0.000  -0.000   0.000  -0.000   0.000  -0.000
 -0.000   0.000  -0.000  -0.000   0.000   0.000  -0.000  -0.000
  0.000  -0.000   0.000  -0.000  -0.000   0.000   0.000   0.000
 pseudopotential strength for first ion, spin component:           2
-25.249   0.000   0.000   0.000   0.000   7.671  -0.000  -0.000
  0.000 -25.250   0.000  -0.000  -0.000  -0.000   7.671  -0.000
  0.000   0.000 -25.249   0.000  -0.000  -0.000  -0.000   7.671
  0.000  -0.000   0.000 -25.249   0.000  -0.000   0.000  -0.000
  0.000  -0.000  -0.000   0.000 -25.249  -0.000   0.000   0.000
  7.671  -0.000  -0.000  -0.000  -0.000   2.339   0.000   0.000
 -0.000   7.671  -0.000   0.000   0.000   0.000   2.339   0.000
 -0.000  -0.000   7.671  -0.000   0.000   0.000   0.000   2.339
 -0.000   0.000  -0.000   7.671  -0.000   0.000  -0.000   0.000
 -0.000   0.000   0.000  -0.000   7.671   0.000  -0.000  -0.000
 -0.000   0.000   0.000   0.000   0.000   0.000  -0.000   0.000
  0.000  -0.000   0.000  -0.000  -0.000  -0.000   0.000  -0.000
 -0.000  -0.000   0.000   0.000   0.000  -0.000  -0.000  -0.000
  0.000  -0.000  -0.000  -0.000   0.000   0.000   0.000  -0.000
 -0.000   0.000   0.000  -0.000  -0.000   0.000   0.000  -0.000
 -0.000  -0.000   0.000   0.000   0.000  -0.000  -0.000  -0.000
  0.000  -0.000  -0.000  -0.000   0.000   0.000   0.000  -0.000
 -0.000   0.000   0.000  -0.000  -0.000   0.000   0.000  -0.000
 total augmentation occupancy for first ion, spin component:           1
  2.000  -0.000  -0.000  -0.000  -0.000  -0.000   0.000  -0.000  -0.000  -0.000  -0.000  -0.000   0.000   0.000  -0.000  -0.000
 -0.000   2.000  -0.000   0.000   0.000  -0.000  -0.000  -0.000   0.000   0.000   0.000   0.000   0.000  -0.000  -0.000  -0.000
 -0.000  -0.000   2.000   0.000  -0.000   0.000  -0.000  -0.000   0.000  -0.000   0.000   0.000   0.000   0.000  -0.000  -0.000
 -0.000   0.000   0.000   2.000  -0.000  -0.000   0.000  -0.000  -0.000  -0.000   0.000   0.000   0.000   0.000   0.000  -0.000
 -0.000   0.000  -0.000  -0.000   2.000  -0.000   0.000  -0.000  -0.000  -0.000  -0.000  -0.000   0.000   0.000   0.000  -0.000
 -0.000  -0.000   0.000  -0.000  -0.000   0.000   0.000  -0.000   0.000   0.000   0.000   0.000   0.000   0.000  -0.000   0.000
  0.000  -0.000  -0.000   0.000   0.000   0.000   0.000   0.000   0.000  -0.000  -0.000   0.000   0.000  -0.000  -0.000  -0.000
 -0.000  -0.000  -0.000  -0.000  -0.000  -0.000   0.000   0.000   0.000  -0.000   0.000  -0.000   0.000   0.000  -0.000  -0.000
 -0.000   0.000   0.000  -0.000  -0.000   0.000   0.000   0.000   0.000   0.000  -0.000   0.000   0.000   0.000   0.000  -0.000
 -0.000   0.000  -0.000  -0.000  -0.000   0.000  -0.000  -0.000   0.000   0.000  -0.000   0.000   0.000  -0.000  -0.000  -0.000
 -0.000   0.000   0.000   0.000  -0.000   0.000  -0.000   0.000  -0.000  -0.000   2.006   0.002   0.000   0.000   0.000  -0.000
 -0.000   0.000   0.000   0.000  -0.000   0.000   0.000  -0.000   0.000   0.000   0.002   0.000  -0.000   0.000   0.000   0.000
  0.000   0.000   0.000   0.000   0.000   0.000   0.000   0.000   0.000   0.000   0.000  -0.000   0.814   0.002   0.001  -0.044
  0.000  -0.000   0.000   0.000   0.000   0.000  -0.000   0.000   0.000  -0.000   0.000   0.000   0.002   0.811   0.002  -0.000
 -0.000  -0.000  -0.000   0.000   0.000  -0.000  -0.000  -0.000   0.000  -0.000   0.000   0.000   0.001   0.002   0.813  -0.000
 -0.000  -0.000  -0.000  -0.000  -0.000   0.000  -0.000  -0.000  -0.000  -0.000  -0.000   0.000  -0.044  -0.000  -0.000   0.002
 -0.000   0.000  -0.000  -0.000  -0.000   0.000   0.000  -0.000  -0.000   0.000  -0.000   0.000  -0.000  -0.044  -0.000   0.000
  0.000   0.000   0.000  -0.000  -0.000   0.000   0.000   0.000  -0.000  -0.000  -0.000   0.000  -0.000  -0.000  -0.044   0.000
 total augmentation occupancy for first ion, spin component:           2
  0.006   0.000  -0.000   0.000   0.000   0.012   0.000   0.000   0.000   0.000   0.000   0.000  -0.000  -0.000  -0.000   0.000
  0.000   0.006   0.000  -0.000  -0.000   0.000   0.012   0.000   0.000  -0.000   0.000   0.000   0.000  -0.000  -0.000  -0.000
 -0.000   0.000   0.006   0.000   0.000  -0.000   0.000   0.012  -0.000  -0.000   0.000   0.000   0.000  -0.000  -0.000  -0.000
  0.000  -0.000   0.000   0.006   0.000   0.000  -0.000   0.000   0.012   0.000   0.000   0.000  -0.000  -0.000  -0.000   0.000
  0.000  -0.000   0.000   0.000   0.006   0.000  -0.000   0.000   0.000   0.012  -0.000  -0.000  -0.000  -0.000   0.000   0.000
  0.012   0.000  -0.000   0.000   0.000  -0.000  -0.000  -0.000  -0.000  -0.000   0.000   0.000   0.000   0.000  -0.000  -0.000
  0.000   0.012   0.000  -0.000  -0.000  -0.000  -0.000  -0.000   0.000   0.000   0.000  -0.000   0.000  -0.000  -0.000  -0.000
  0.000   0.000   0.012   0.000   0.000  -0.000  -0.000  -0.000   0.000  -0.000  -0.000   0.000   0.000   0.000  -0.000  -0.000
  0.000   0.000  -0.000   0.012   0.000  -0.000   0.000   0.000  -0.000  -0.000   0.000  -0.000   0.000   0.000   0.000  -0.000
  0.000  -0.000  -0.000   0.000   0.012  -0.000   0.000  -0.000  -0.000  -0.000   0.000  -0.000   0.000  -0.000   0.000  -0.000
  0.000   0.000   0.000   0.000  -0.000   0.000   0.000  -0.000   0.000   0.000   0.047   0.028  -0.000  -0.000  -0.000   0.000
  0.000   0.000   0.000   0.000  -0.000   0.000  -0.000   0.000  -0.000  -0.000   0.028   0.000  -0.000   0.000   0.000  -0.000
 -0.000   0.000   0.000  -0.000  -0.000   0.000   0.000   0.000   0.000   0.000  -0.000  -0.000   0.814   0.002   0.001  -0.044
 -0.000  -0.000  -0.000  -0.000  -0.000   0.000  -0.000   0.000   0.000  -0.000  -0.000   0.000   0.002   0.811   0.002  -0.000
 -0.000  -0.000  -0.000  -0.000   0.000  -0.000  -0.000  -0.000   0.000   0.000  -0.000   0.000   0.001   0.002   0.813  -0.000
  0.000  -0.000  -0.000   0.000   0.000  -0.000  -0.000  -0.000  -0.000  -0.000   0.000  -0.000  -0.044  -0.000  -0.000   0.002
  0.000   0.000   0.000   0.000   0.000  -0.000   0.000  -0.000  -0.000  -0.000   0.000  -0.000  -0.000  -0.044  -0.000   0.000
  0.000   0.000   0.000   0.000  -0.000   0.000   0.000   0.000  -0.000  -0.000   0.000  -0.000  -0.000  -0.000  -0.044   0.000


------------------------ aborting loop because EDIFF is reached ----------------------------------------


    CHARGE:  cpu time      0.0255: real time      0.0259
    FORLOC:  cpu time      0.0020: real time      0.0020
    FORNL :  cpu time      0.0058: real time      0.0059
    STRESS:  cpu time      0.0216: real time      0.0217
    FORCOR:  cpu time      0.3938: real time      0.3965
    FORHAR:  cpu time      0.0297: real time      0.0299
    MIXING:  cpu time      0.0070: real time      0.0070
    OFIELD:  cpu time      0.0000: real time      0.0000

  FORCE on cell =-STRESS in cart. coord.  units (eV):
  Direction    XX          YY          ZZ          XY          YZ          ZX
  --------------------------------------------------------------------------------------
  Alpha Z     0.32528     0.32528     0.32528
  Ewald     -86.60060   -88.38602   -90.16671     0.00000     0.00000     0.00000
  Hartree   456.05009   454.35173   452.51299     0.02315     0.03297     0.04933
  E(xc)     -69.80056   -69.80203   -69.80131    -0.00021     0.00023     0.00029
  Local    -640.75628  -637.30769  -633.62703    -0.03870    -0.05363    -0.08086
  n-local    70.24852    70.26945    70.23485     0.00905     0.01111     0.01731
  augment   178.25861   178.24135   178.25587    -0.00376    -0.00194    -0.00270
  Kinetic    92.28045    92.28789    92.26971     0.00463     0.00861     0.01236
  Fock        0.00000     0.00000     0.00000     0.00000     0.00000     0.00000
  -------------------------------------------------------------------------------------
  Total       0.00551    -0.02004     0.00367    -0.00584    -0.00266    -0.00427
  in kB       0.00256    -0.00933     0.00171    -0.00272    -0.00124    -0.00199
  external pressure =       -0.00 kB  Pullay stress =        0.00 kB


 VOLUME and BASIS-vectors are now :
 -----------------------------------------------------------------------------
  energy-cutoff  :      520.00
  volume of cell :     3442.80
      direct lattice vectors                 reciprocal lattice vectors
    15.000000000  0.000000000  0.000000000     0.066666667 -0.000000000  0.000000000
     0.000000000 15.100000000  0.000000000     0.000000000  0.066225166  0.000000000
     0.000000000  0.000000000 15.200000000    -0.000000000 -0.000000000  0.065789474

  length of vectors
    15.000000000 15.100000000 15.200000000     0.066666667  0.066225166  0.065789474


 FORCES acting on ions
    electron-ion (+dipol)            ewald-force                    non-local-force                 convergence-correction
 -----------------------------------------------------------------------------------------------
   -.232E-04 -.423E-04 -.570E-04   0.373E-16 0.363E-16 -.117E-16   -.185E-04 -.112E-04 -.732E-04   0.407E-04 0.526E-04 0.126E-03
 -----------------------------------------------------------------------------------------------
   -.232E-04 -.423E-04 -.570E-04   0.373E-16 0.363E-16 -.117E-16   -.185E-04 -.112E-04 -.732E-04   0.407E-04 0.526E-04 0.126E-03
 
 
 POSITION                                       TOTAL-FORCE (eV/Angst)
 -----------------------------------------------------------------------------------
      0.00000      0.00000      0.00000        -0.000001     -0.000001     -0.000004
 -----------------------------------------------------------------------------------
    total drift:                               -0.000001     -0.000001     -0.000004


--------------------------------------------------------------------------------------------------------



  FREE ENERGIE OF THE ION-ELECTRON SYSTEM (eV)
  ---------------------------------------------------
  free  energy   TOTEN  =        -0.69827682 eV

  energy  without entropy=       -0.65971185  energy(sigma->0) =       -0.67899433
 


--------------------------------------------------------------------------------------------------------


    POTLOK:  cpu time      0.7973: real time      0.8020


--------------------------------------------------------------------------------------------------------


     LOOP+:  cpu time     18.2073: real time     18.3283
    4ORBIT:  cpu time      0.0000: real time      0.0000

 total amount of memory used by VASP MPI-rank0    58583. kBytes
=======================================================================

   base      :      30000. kBytes
   nonl-proj :        233. kBytes
   fftplans  :       8156. kBytes
   grid      :      19898. kBytes
   one-center:         15. kBytes
   wavefun   :        281. kBytes
 
  
  
 General timing and accounting informations for this job:
 ========================================================
  
                  Total CPU time used (sec):       19.789
                            User time (sec):       17.897
                          System time (sec):        1.891
                         Elapsed time (sec):       20.468
  
                   Maximum memory used (kb):      453148.
                   Average memory used (kb):          N/A
  
                          Minor page faults:        95722
                          Major page faults:           24
                 Voluntary context switches:         1255
