 vasp.6.4.2 20Jul23 (build Aug 07 2024 12:45:50) gamma-only                     
  
 executed on             LinuxIFC date 2026.09.30  12:32:14
 running   64 mpi-ranks, on    1 nodes
 distrk:  each k-point on   64 cores,    1 groups
 distr:  one band on NCORE=  32 cores,    2 groups


--------------------------------------------------------------------------------------------------------


 INCAR:
   ALGO = Normal
   EDIFF = 1e-05
   EFERMI = Midgap
   ENCUT = 520.0
   GGA = Pe
   GGA_COMPAT = False
   IBRION = -1
   ISMEAR = 0
   ISPIN = 2
   ISYM = 0
   LAECHG = False
   LASPH = True
   LCHARG = False
   LMAXMIX = 6
   LMIXTAU = True
   LREAL = False
   LWAVE = False
   MAGMOM = 1*1.0
   NCORE = 32
   NELM = 400
   NSW = 0
   PREC = Accurate
   SIGMA = 0.05
   SYSTEM = Na_atom_ispin2

 POTCAR:    PAW_PBE Na_pv 19Sep2006               
 -----------------------------------------------------------------------------
|                                                                             |
|           W    W    AA    RRRRR   N    N  II  N    N   GGGG   !!!           |
|           W    W   A  A   R    R  NN   N  II  NN   N  G    G  !!!           |
|           W    W  A    A  R    R  N N  N  II  N N  N  G       !!!           |
|           W WW W  AAAAAA  RRRRR   N  N N  II  N  N N  G  GGG   !            |
|           WW  WW  A    A  R   R   N   NN  II  N   NN  G    G                |
|           W    W  A    A  R    R  N    N  II  N    N   GGGG   !!!           |
|                                                                             |
|     For optimal performance we recommend to set                             |
|       NCORE = 2 up to number-of-cores-per-socket                            |
|     NCORE specifies how many cores store one orbital (NPAR=cpu/NCORE).      |
|     This setting can greatly improve the performance of VASP for DFT.       |
|     The default, NCORE=1 might be grossly inefficient on modern             |
|     multi-core architectures or massively parallel machines. Do your        |
|     own testing! More info at https://www.vasp.at/wiki/index.php/NCORE      |
|     Unfortunately you need to use the default for GW and RPA                |
|     calculations (for HF NCORE is supported but not extensively tested      |
|     yet).                                                                   |
|                                                                             |
 -----------------------------------------------------------------------------

 POTCAR:    PAW_PBE Na_pv 19Sep2006               
   SHA256 =  6a2f546d9e11350984debacf3dc457d8cffc0868e817d445faca461816a32b94 Na_pv/POTCAR          
   COPYR  = (c) Copyright 19Sep2006 Georg Kresse                                                    
   COPYR  = This file is part of the software VASP. Any use, copying, and all other rights are regul
   COPYR  = If you do not have a valid VASP license, you may not use, copy or distribute this file. 
   VRHFIN =Na: p6s1                                                                                 
   LEXCH  = PE                                                                                      
   EATOM  =   766.0439 eV,   56.3026 Ry                                                             
                                                                                                    
   TITEL  = PAW_PBE Na_pv 19Sep2006                                                                 
   LULTRA =        F    use ultrasoft PP ?                                                          
   IUNSCR =        1    unscreen: 0-lin 1-nonlin 2-no                                               
   RPACOR =    1.800    partial core radius                                                         
   POMASS =   22.990; ZVAL   =    7.000    mass and valenz                                          
   RCORE  =    2.200    outmost cutoff radius                                                       
   RWIGS  =    2.200; RWIGS  =    1.164    wigner-seitz radius (au A)                               
   ENMAX  =  259.561; ENMIN  =  194.671 eV                                                          
   ICORE  =        2    local potential                                                             
   LCOR   =        T    correct aug charges                                                         
   LPAW   =        T    paw PP                                                                      
   EAUG   =  368.056                                                                                
   DEXC   =    0.000                                                                                
   RMAX   =    2.245    core radius for proj-oper                                                   
   RAUG   =    1.300    factor for augmentation sphere                                              
   RDEP   =    2.259    radius for radial grids                                                     
   RDEPT  =    1.738    core radius for aug-charge                                                  
                                                                                                    
   Atomic configuration                                                                             
    5 entries                                                                                       
     n  l   j            E        occ.                                                              
     1  0  0.50     -1033.6933   2.0000                                                             
     2  0  0.50       -56.7526   2.0000                                                             
     2  1  1.50       -28.6721   6.0000                                                             
     3  0  0.50        -2.7440   1.0000                                                             
     3  2  1.50        -1.3606   0.0000                                                             
   Description                                                                                      
     l       E           TYP  RCUT    TYP  RCUT                                                     
     1    -28.6720912     23  2.000                                                                 
     1      6.8029130     23  2.000                                                                 
     0     -2.7439560     23  2.200                                                                 
     0     34.0145650     23  2.200                                                                 
     2     -1.3605826     23  2.200                                                                 
  local pseudopotential read in
  partial core-charges read in
  partial kinetic energy density read in
  atomic valenz-charges read in
  non local Contribution for L=           1  read in
    real space projection operators read in
  non local Contribution for L=           1  read in
    real space projection operators read in
  non local Contribution for L=           0  read in
    real space projection operators read in
  non local Contribution for L=           0  read in
    real space projection operators read in
    PAW grid and wavefunctions read in
 
   number of l-projection  operators is LMAX  =           4
   number of lm-projection operators is LMMAX =           8
 
  PAW_PBE Na_pv 19Sep2006               :
 energy of atom  1       EATOM= -766.0439
 kinetic energy error for atom=    0.0019 (will be added to EATOM!!)
 
 
 POSCAR: Na1
  positions in direct lattice
  No initial velocities read in
 exchange correlation table for  LEXCH =        8
   RHO(1)=    0.500       N(1)  =     2000
   RHO(2)=  100.500       N(2)  =     4000
 


--------------------------------------------------------------------------------------------------------


 ion  position               nearest neighbor table
   1  0.000  0.000  0.000-
 

IMPORTANT INFORMATION: All symmetrisations will be switched off!
NOSYMM: (Re-)initialisation of all symmetry stuff for point group C_1.


----------------------------------------------------------------------------------------

                                     Primitive cell                                     

  volume of cell :    5929.5600

  direct lattice vectors                    reciprocal lattice vectors
    18.000000000  0.000000000  0.000000000     0.055555556 -0.000000000  0.000000000
     0.000000000 18.100000000  0.000000000     0.000000000  0.055248619  0.000000000
     0.000000000  0.000000000 18.200000000    -0.000000000 -0.000000000  0.054945055

  length of vectors
    18.000000000 18.100000000 18.200000000     0.055555556  0.055248619  0.054945055

  position of ions in fractional coordinates (direct lattice)
     0.000000000  0.000000000  0.000000000

  ion indices of the primitive-cell ions
   primitive index   ion index
                 1           1

----------------------------------------------------------------------------------------

 
 
 KPOINTS: Automatic kpoint scheme                 

Automatic generation of k-mesh.
 Grid dimensions read from file:
 generate k-points for:    1    1    1

 Generating k-lattice:

  Cartesian coordinates                     Fractional coordinates (reciprocal lattice)
     0.055555556 -0.000000000  0.000000000     1.000000000 -0.000000000  0.000000000
     0.000000000  0.055248619  0.000000000     0.000000000  1.000000000  0.000000000
    -0.000000000 -0.000000000  0.054945055    -0.000000000 -0.000000000  1.000000000

  Length of vectors
     0.055555556  0.055248619  0.054945055

  Shift w.r.t. Gamma in fractional coordinates (k-lattice)
     0.000000000  0.000000000  0.000000000

 
 Subroutine IBZKPT returns following result:
 ===========================================
 
 Found      1 irreducible k-points:
 
 Following reciprocal coordinates:
            Coordinates               Weight
  0.000000  0.000000  0.000000      1.000000
 
 Following cartesian coordinates:
            Coordinates               Weight
  0.000000  0.000000  0.000000      1.000000
 


--------------------------------------------------------------------------------------------------------




 Dimension of arrays:
   k-points           NKPTS =      1   k-points in BZ     NKDIM =      1   number of bands    NBANDS=      8
   number of dos      NEDOS =    301   number of ions     NIONS =      1
   non local maximal  LDIM  =      4   non local SUM 2l+1 LMDIM =      8
   total plane-waves  NPLWV = ******
   max r-space proj   IRMAX =      1   max aug-charges    IRDMAX=  12863
   dimension x,y,z NGX =   140 NGY =  140 NGZ =  140
   dimension x,y,z NGXF=   280 NGYF=  280 NGZF=  280
   support grid    NGXF=   280 NGYF=  280 NGZF=  280
   ions per type =               1
   NGX,Y,Z   is equivalent  to a cutoff of  12.93, 12.86, 12.79 a.u.
   NGXF,Y,Z  is equivalent  to a cutoff of  25.86, 25.72, 25.58 a.u.

 SYSTEM =  Na_atom_ispin2                          
 POSCAR =  Na1                                     

 Startparameter for this run:
   NWRITE =      2    write-flag & timer
   PREC   = accura    normal or accurate (medium, high low for compatibility)
   ISTART =      0    job   : 0-new  1-cont  2-samecut
   ICHARG =      2    charge: 1-file 2-atom 10-const
   ISPIN  =      2    spin polarized calculation?
   LNONCOLLINEAR =      F non collinear calculations
   LSORBIT =      F    spin-orbit coupling
   INIWAV =      1    electr: 0-lowe 1-rand  2-diag
   LASPH  =      T    aspherical Exc in radial PAW
 Electronic Relaxation 1
   ENCUT  =  520.0 eV  38.22 Ry    6.18 a.u.  33.47 33.65 33.84*2*pi/ulx,y,z
   ENINI  =  520.0     initial cutoff
   ENAUG  =  368.1 eV  augmentation charge cutoff
   NELM   =    400;   NELMIN=  2; NELMDL= -5     # of ELM steps 
   EDIFF  = 0.1E-04   stopping-criterion for ELM
   LREAL  =      F    real-space projection
   NLSPLINE    = F    spline interpolate recip. space projectors
   LCOMPAT=      F    compatible to vasp.4.4
   GGA_COMPAT  = F    GGA compatible to vasp.4.4-vasp.4.6
   LMAXPAW     = -100 max onsite density
   LMAXMIX     =    6 max onsite mixed and CHGCAR
   VOSKOWN=      0    Vosko Wilk Nusair interpolation
   ROPT   =    0.00000
 Ionic relaxation
   EDIFFG = 0.1E-03   stopping-criterion for IOM
   NSW    =      0    number of steps for IOM
   NBLOCK =      1;   KBLOCK =      1    inner block; outer block 
   IBRION =     -1    ionic relax: 0-MD 1-quasi-New 2-CG
   NFREE  =      0    steps in history (QN), initial steepest desc. (CG)
   ISIF   =      2    stress and relaxation
   IWAVPR =     10    prediction:  0-non 1-charg 2-wave 3-comb
   ISYM   =      0    0-nonsym 1-usesym 2-fastsym
   LCORR  =      T    Harris-Foulkes like correction to forces

   POTIM  = 0.5000    time-step for ionic-motion
   TEIN   =    0.0    initial temperature
   TEBEG  =    0.0;   TEEND  =   0.0 temperature during run
   SMASS  =  -3.00    Nose mass-parameter (am)
   estimated Nose-frequenzy (Omega)   =  0.10E-29 period in steps = 0.13E+47 mass=  -0.740E-26a.u.
   SCALEE = 1.0000    scale energy and forces
   NPACO  =    256;   APACO  = 10.0  distance and # of slots for P.C.
   PSTRESS=    0.0 pullay stress

  Mass of Ions in am
   POMASS =  22.99
  Ionic Valenz
   ZVAL   =   7.00
  Atomic Wigner-Seitz radii
   RWIGS  =  -1.00
  virtual crystal weights 
   VCA    =   1.00
   NELECT =       7.0000    total number of electrons
   NUPDOWN=      -1.0000    fix difference up-down

 DOS related values:
   EMIN   =  10.00;   EMAX   =-10.00  energy-range for DOS
   EFERMI =   0.00;   METHOD = MIDGAP      
   ISMEAR =     0;   SIGMA  =   0.05  broadening in eV -4-tet -1-fermi 0-gaus

 Electronic relaxation 2 (details)
   IALGO  =     38    algorithm
   LDIAG  =      T    sub-space diagonalisation (order eigenvalues)
   LSUBROT=      F    optimize rotation matrix (better conditioning)
   TURBO    =      0    0=normal 1=particle mesh
   IRESTART =      0    0=no restart 2=restart with 2 vectors
   NREBOOT  =      0    no. of reboots
   NMIN     =      0    reboot dimension
   EREF     =   0.00    reference energy to select bands
   IMIX   =      4    mixing-type and parameters
     AMIX     =   0.40;   BMIX     =  1.00
     AMIX_MAG =   1.60;   BMIX_MAG =  1.00
     AMIN     =   0.10
     WC   =   100.;   INIMIX=   1;  MIXPRE=   1;  MAXMIX= -45

 Intra band minimization:
   WEIMIN = 0.0000     energy-eigenvalue tresh-hold
   EBREAK =  0.31E-06  absolut break condition
   DEPER  =   0.30     relativ break condition  

   TIME   =   0.40     timestep for ELM

  volume/ion in A,a.u.               =    5929.56     40014.65
  Fermi-wavevector in a.u.,A,eV,Ry     =   0.173021  0.326963  0.407310  0.029936
  Thomas-Fermi vector in A             =   0.886960
 
 Write flags
   LWAVE        =      F    write WAVECAR
   LDOWNSAMPLE  =      F    k-point downsampling of WAVECAR
   LCHARG       =      F    write CHGCAR
   LVTOT        =      F    write LOCPOT, total local potential
   LVHAR        =      F    write LOCPOT, Hartree potential only
   LELF         =      F    write electronic localiz. function (ELF)
   LORBIT       =      0    0 simple, 1 ext, 2 COOP (PROOUT), +10 PAW based schemes


 Dipole corrections
   LMONO  =      F    monopole corrections only (constant potential shift)
   LDIPOL =      F    correct potential (dipole corrections)
   IDIPOL =      0    1-x, 2-y, 3-z, 4-all directions 
   EPSILON=  1.0000000 bulk dielectric constant

 Exchange correlation treatment:
   GGA     =    PE    GGA type
   LEXCH   =     8    internal setting for exchange type
   LIBXC   =     F    Libxc                    
   VOSKOWN =     0    Vosko Wilk Nusair interpolation
   LHFCALC =     F    Hartree Fock is set to
   LHFONE  =     F    Hartree Fock one center treatment
   AEXX    =    0.0000 exact exchange contribution

 Linear response parameters
   LEPSILON=     F    determine dielectric tensor
   LRPA    =     F    only Hartree local field effects (RPA)
   LNABLA  =     F    use nabla operator in PAW spheres
   LVEL    =     F    velocity operator in full k-point grid
   CSHIFT  =0.1000    complex shift for real part using Kramers Kronig
   OMEGAMAX=  -1.0    maximum frequency
   DEG_THRESHOLD= 0.2000000E-02 threshold for treating states as degnerate
   RTIME   =   -0.100 relaxation time in fs
  (WPLASMAI=    0.000 imaginary part of plasma frequency in eV, 0.658/RTIME)
   DFIELD  = 0.0000000 0.0000000 0.0000000 field for delta impulse in time
 
  Optional k-point grid parameters
   LKPOINTS_OPT  =     F    use optional k-point grid
   KPOINTS_OPT_MODE=     1    mode for optional k-point grid
 
 Orbital magnetization related:
   ORBITALMAG=     F  switch on orbital magnetization
   LCHIMAG   =     F  perturbation theory with respect to B field
   DQ        =  0.001000  dq finite difference perturbation B field
   LLRAUG    =     F  two centre corrections for induced B field
   LBONE     =     F  B-component reconstruction in AE one-centre
   LVGVCALC  =     T  calculate vGv susceptibility
   LVGVAPPL  =     F  apply vGv susceptibility instead of pGv for G=0

 Random number generation:
   RANDOM_GENERATOR = DEFAULT
   PCG_SEED         = not used


--------------------------------------------------------------------------------------------------------


 Static calculation
 charge density and potential will be updated during run
 spin polarized calculation
 Variant of blocked Davidson
 Davidson routine will perform the subspace rotation
 perform sub-space diagonalisation
    after iterative eigenvector-optimisation
 modified Broyden-mixing scheme, WC =      100.0
 initial mixing is a Kerker type mixing with AMIX =  0.4000 and BMIX =      1.0000
 Hartree-type preconditioning will be used
 using additional bands            4
 reciprocal scheme for non local part
 use partial core corrections
 calculate Harris-corrections to forces 
   (improved forces if not selfconsistent)
 use gradient corrections 
 use of overlap-Matrix (Vanderbilt PP)
 Gauss-broadening in eV      SIGMA  =   0.05


--------------------------------------------------------------------------------------------------------


  energy-cutoff  :      520.00
  volume of cell :     5929.56
      direct lattice vectors                 reciprocal lattice vectors
    18.000000000  0.000000000  0.000000000     0.055555556 -0.000000000  0.000000000
     0.000000000 18.100000000  0.000000000     0.000000000  0.055248619  0.000000000
     0.000000000  0.000000000 18.200000000    -0.000000000 -0.000000000  0.054945055

  length of vectors
    18.000000000 18.100000000 18.200000000     0.055555556  0.055248619  0.054945055


 
 k-points in units of 2pi/SCALE and weight: Automatic kpoint scheme                 
   0.00000000  0.00000000  0.00000000       1.000
 
 k-points in reciprocal lattice and weights: Automatic kpoint scheme                 
   0.00000000  0.00000000  0.00000000       1.000
 
 position of ions in fractional coordinates (direct lattice) 
   0.00000000  0.00000000  0.00000000
 
 position of ions in cartesian coordinates  (Angst):
   0.00000000  0.00000000  0.00000000
 


--------------------------------------------------------------------------------------------------------


 use parallel FFT for orbitals z direction half grid
 k-point   1 :   0.0000 0.0000 0.0000  plane waves:   79868

 maximum and minimum number of plane-waves per node :      2508     2479

 maximum number of plane-waves:     79868
 maximum index in each direction: 
   IXMAX=   33   IYMAX=   33   IZMAX=   33
   IXMIN=  -33   IYMIN=  -33   IZMIN=    0


 parallel 3D FFT for wavefunctions:
    minimum data exchange during FFTs selected (reduces bandwidth)
 parallel 3D FFT for charge:
    minimum data exchange during FFTs selected (reduces bandwidth)


 total amount of memory used by VASP MPI-rank0    81698. kBytes
=======================================================================

   base      :      30000. kBytes
   nonl-proj :        198. kBytes
   fftplans  :      14937. kBytes
   grid      :      36243. kBytes
   one-center:          3. kBytes
   wavefun   :        317. kBytes
 
     INWAV:  cpu time      0.0000: real time      0.0000
 Broyden mixing: mesh for mixing (old mesh)
   NGX = 67   NGY = 67   NGZ = 67
  (NGX  =280   NGY  =280   NGZ  =280)
  gives a total of 300763 points

 initial charge density was supplied:
 charge density of overlapping atoms calculated
 number of electron       7.0000000 magnetization       1.0000000
 keeping initial charge density in first step


--------------------------------------------------------------------------------------------------------


 Maximum index for augmentation-charges          641 (set IRDMAX)


--------------------------------------------------------------------------------------------------------


 First call to EWALD:  gamma=   0.098
 Maximum number of real-space cells 3x 3x 3
 Maximum number of reciprocal cells 3x 3x 3

    FEWALD:  cpu time      0.0019: real time      0.0019


--------------------------------------- Ionic step        1  -------------------------------------------




--------------------------------------- Iteration      1(   1)  ---------------------------------------


    POTLOK:  cpu time      0.5980: real time      0.6025
    SETDIJ:  cpu time      0.2019: real time      0.2029
     EDDAV:  cpu time      0.0952: real time      0.0960
       DOS:  cpu time      0.0005: real time      0.0006
    --------------------------------------------
      LOOP:  cpu time      0.8957: real time      0.9020

 eigenvalue-minimisations  :    32
 total energy-change (2. order) : 0.1604486E+03  (-0.9125924E+02)
 number of electron       7.0000000 magnetization       1.0000000
 augmentation part        7.0000000 magnetization       1.0000000

 Free energy of the ion-electron system (eV)
  ---------------------------------------------------
  alpha Z        PSCENC =         0.05142041
  Ewald energy   TEWEN  =       -55.30181893
  -Hartree energ DENC   =      -471.62771733
  -exchange      EXHF   =         0.00000000
  -V(xc)+E(xc)   XCENC  =        24.11658505
  PAW double counting   =       502.19532895     -590.71360055
  entropy T*S    EENTRO =        -0.01083825
  eigenvalues    EBANDS =       -14.30278840
  atomic energy  EATOM  =       766.04200436
  Solvation  Ediel_sol  =         0.00000000
  ---------------------------------------------------
  free energy    TOTEN  =       160.44857531 eV

  energy without entropy =      160.45941355  energy(sigma->0) =      160.45399443


--------------------------------------------------------------------------------------------------------




--------------------------------------- Iteration      1(   2)  ---------------------------------------


     EDDAV:  cpu time      0.1067: real time      0.1081
       DOS:  cpu time      0.0002: real time      0.0002
    --------------------------------------------
      LOOP:  cpu time      0.1069: real time      0.1082

 eigenvalue-minimisations  :    40
 total energy-change (2. order) :-0.1402286E+03  (-0.1394108E+03)
 number of electron       7.0000000 magnetization       1.0000000
 augmentation part        7.0000000 magnetization       1.0000000

 Free energy of the ion-electron system (eV)
  ---------------------------------------------------
  alpha Z        PSCENC =         0.05142041
  Ewald energy   TEWEN  =       -55.30181893
  -Hartree energ DENC   =      -471.62771733
  -exchange      EXHF   =         0.00000000
  -V(xc)+E(xc)   XCENC  =        24.11658505
  PAW double counting   =       502.19532895     -590.71360055
  entropy T*S    EENTRO =        -0.00028356
  eigenvalues    EBANDS =      -154.54196564
  atomic energy  EATOM  =       766.04200436
  Solvation  Ediel_sol  =         0.00000000
  ---------------------------------------------------
  free energy    TOTEN  =        20.21995275 eV

  energy without entropy =       20.22023631  energy(sigma->0) =       20.22009453


--------------------------------------------------------------------------------------------------------




--------------------------------------- Iteration      1(   3)  ---------------------------------------


     EDDAV:  cpu time      0.0910: real time      0.0917
       DOS:  cpu time      0.0002: real time      0.0002
    --------------------------------------------
      LOOP:  cpu time      0.0911: real time      0.0919

 eigenvalue-minimisations  :    32
 total energy-change (2. order) :-0.1944983E+02  (-0.1944982E+02)
 number of electron       7.0000000 magnetization       1.0000000
 augmentation part        7.0000000 magnetization       1.0000000

 Free energy of the ion-electron system (eV)
  ---------------------------------------------------
  alpha Z        PSCENC =         0.05142041
  Ewald energy   TEWEN  =       -55.30181893
  -Hartree energ DENC   =      -471.62771733
  -exchange      EXHF   =         0.00000000
  -V(xc)+E(xc)   XCENC  =        24.11658505
  PAW double counting   =       502.19532895     -590.71360055
  entropy T*S    EENTRO =        -0.00060228
  eigenvalues    EBANDS =      -173.99147938
  atomic energy  EATOM  =       766.04200436
  Solvation  Ediel_sol  =         0.00000000
  ---------------------------------------------------
  free energy    TOTEN  =         0.77012030 eV

  energy without entropy =        0.77072257  energy(sigma->0) =        0.77042143


--------------------------------------------------------------------------------------------------------




--------------------------------------- Iteration      1(   4)  ---------------------------------------


     EDDAV:  cpu time      0.1065: real time      0.1074
       DOS:  cpu time      0.0002: real time      0.0002
    --------------------------------------------
      LOOP:  cpu time      0.1067: real time      0.1075

 eigenvalue-minimisations  :    40
 total energy-change (2. order) :-0.5063680E+00  (-0.5063680E+00)
 number of electron       7.0000000 magnetization       1.0000000
 augmentation part        7.0000000 magnetization       1.0000000

 Free energy of the ion-electron system (eV)
  ---------------------------------------------------
  alpha Z        PSCENC =         0.05142041
  Ewald energy   TEWEN  =       -55.30181893
  -Hartree energ DENC   =      -471.62771733
  -exchange      EXHF   =         0.00000000
  -V(xc)+E(xc)   XCENC  =        24.11658505
  PAW double counting   =       502.19532895     -590.71360055
  entropy T*S    EENTRO =        -0.00060669
  eigenvalues    EBANDS =      -174.49784297
  atomic energy  EATOM  =       766.04200436
  Solvation  Ediel_sol  =         0.00000000
  ---------------------------------------------------
  free energy    TOTEN  =         0.26375229 eV

  energy without entropy =        0.26435898  energy(sigma->0) =        0.26405563


--------------------------------------------------------------------------------------------------------




--------------------------------------- Iteration      1(   5)  ---------------------------------------


     EDDAV:  cpu time      0.0913: real time      0.0921
       DOS:  cpu time      0.0002: real time      0.0002
    CHARGE:  cpu time      0.0484: real time      0.0487
    MIXING:  cpu time      0.0105: real time      0.0106
    --------------------------------------------
      LOOP:  cpu time      0.1504: real time      0.1515

 eigenvalue-minimisations  :    32
 total energy-change (2. order) :-0.4976277E-02  (-0.4976277E-02)
 number of electron       7.0000020 magnetization       0.9990492
 augmentation part        4.4627088 magnetization       0.0340020

 Broyden mixing:
  rms(total) = 0.72848E+00    rms(broyden)= 0.72847E+00
  rms(prec ) = 0.72848E+00
  weight for this iteration     100.00

 Free energy of the ion-electron system (eV)
  ---------------------------------------------------
  alpha Z        PSCENC =         0.05142041
  Ewald energy   TEWEN  =       -55.30181893
  -Hartree energ DENC   =      -471.62771733
  -exchange      EXHF   =         0.00000000
  -V(xc)+E(xc)   XCENC  =        24.11658505
  PAW double counting   =       502.19532895     -590.71360055
  entropy T*S    EENTRO =        -0.00060601
  eigenvalues    EBANDS =      -174.50281994
  atomic energy  EATOM  =       766.04200436
  Solvation  Ediel_sol  =         0.00000000
  ---------------------------------------------------
  free energy    TOTEN  =         0.25877601 eV

  energy without entropy =        0.25938201  energy(sigma->0) =        0.25907901


--------------------------------------------------------------------------------------------------------




--------------------------------------- Iteration      1(   6)  ---------------------------------------


    POTLOK:  cpu time      0.5839: real time      0.5879
    SETDIJ:  cpu time      0.2010: real time      0.2019
     EDDAV:  cpu time      0.1083: real time      0.1089
       DOS:  cpu time      0.0002: real time      0.0002
    CHARGE:  cpu time      0.0427: real time      0.0429
    MIXING:  cpu time      0.0106: real time      0.0107
    --------------------------------------------
      LOOP:  cpu time      0.9466: real time      0.9524

 eigenvalue-minimisations  :    40
 total energy-change (2. order) : 0.3099633E+01  (-0.3669743E+00)
 number of electron       7.0000020 magnetization       0.9991705
 augmentation part        4.5038714 magnetization      -0.0611373

 Broyden mixing:
  rms(total) = 0.24993E+00    rms(broyden)= 0.24993E+00
  rms(prec ) = 0.25069E+00
  weight for this iteration     100.00

 eigenvalues of (default mixing * dielectric matrix)
  average eigenvalue GAMMA=   0.7469
  0.7469

 Free energy of the ion-electron system (eV)
  ---------------------------------------------------
  alpha Z        PSCENC =         0.05142041
  Ewald energy   TEWEN  =       -55.30181893
  -Hartree energ DENC   =      -471.67394961
  -exchange      EXHF   =         0.00000000
  -V(xc)+E(xc)   XCENC  =        27.04473006
  PAW double counting   =       501.61113884     -590.16808125
  entropy T*S    EENTRO =        -0.00000000
  eigenvalues    EBANDS =      -174.24703451
  atomic energy  EATOM  =       766.04200436
  Solvation  Ediel_sol  =         0.00000000
  ---------------------------------------------------
  free energy    TOTEN  =         3.35840937 eV

  energy without entropy =        3.35840937  energy(sigma->0) =        3.35840937


--------------------------------------------------------------------------------------------------------




--------------------------------------- Iteration      1(   7)  ---------------------------------------


    POTLOK:  cpu time      0.5988: real time      0.6031
    SETDIJ:  cpu time      0.2006: real time      0.2016
     EDDAV:  cpu time      0.1081: real time      0.1087
       DOS:  cpu time      0.0002: real time      0.0002
    CHARGE:  cpu time      0.0422: real time      0.0425
    MIXING:  cpu time      0.0109: real time      0.0109
    --------------------------------------------
      LOOP:  cpu time      0.9607: real time      0.9671

 eigenvalue-minimisations  :    40
 total energy-change (2. order) :-0.2580166E+01  (-0.1090221E+00)
 number of electron       7.0000020 magnetization       0.9992902
 augmentation part        4.4631505 magnetization      -0.0164157

 Broyden mixing:
  rms(total) = 0.24458E-01    rms(broyden)= 0.24456E-01
  rms(prec ) = 0.25159E-01
  weight for this iteration     100.00

 eigenvalues of (default mixing * dielectric matrix)
  average eigenvalue GAMMA=   0.8160
  0.8160  0.8160

 Free energy of the ion-electron system (eV)
  ---------------------------------------------------
  alpha Z        PSCENC =         0.05142041
  Ewald energy   TEWEN  =       -55.30181893
  -Hartree energ DENC   =      -472.74016072
  -exchange      EXHF   =         0.00000000
  -V(xc)+E(xc)   XCENC  =        25.02888873
  PAW double counting   =       504.08808170     -593.23018531
  entropy T*S    EENTRO =        -0.00000000
  eigenvalues    EBANDS =      -173.15998668
  atomic energy  EATOM  =       766.04200436
  Solvation  Ediel_sol  =         0.00000000
  ---------------------------------------------------
  free energy    TOTEN  =         0.77824354 eV

  energy without entropy =        0.77824354  energy(sigma->0) =        0.77824354


--------------------------------------------------------------------------------------------------------




--------------------------------------- Iteration      1(   8)  ---------------------------------------


    POTLOK:  cpu time      0.5746: real time      0.5794
    SETDIJ:  cpu time      0.2007: real time      0.2016
     EDDAV:  cpu time      0.1388: real time      0.1398
       DOS:  cpu time      0.0002: real time      0.0002
    CHARGE:  cpu time      0.0410: real time      0.0414
    MIXING:  cpu time      0.0133: real time      0.0134
    --------------------------------------------
      LOOP:  cpu time      0.9686: real time      0.9759

 eigenvalue-minimisations  :    56
 total energy-change (2. order) :-0.5836935E+00  (-0.4645538E-02)
 number of electron       7.0000020 magnetization       0.9994210
 augmentation part        4.4647283 magnetization      -0.0116888

 Broyden mixing:
  rms(total) = 0.10495E-01    rms(broyden)= 0.10495E-01
  rms(prec ) = 0.11153E-01
  weight for this iteration     100.00

 eigenvalues of (default mixing * dielectric matrix)
  average eigenvalue GAMMA=   0.8436
  0.9094  0.9094  0.7120

 Free energy of the ion-electron system (eV)
  ---------------------------------------------------
  alpha Z        PSCENC =         0.05142041
  Ewald energy   TEWEN  =       -55.30181893
  -Hartree energ DENC   =      -472.64360722
  -exchange      EXHF   =         0.00000000
  -V(xc)+E(xc)   XCENC  =        24.47709669
  PAW double counting   =       503.81076608     -592.73472399
  entropy T*S    EENTRO =        -0.00000000
  eigenvalues    EBANDS =      -173.50658736
  atomic energy  EATOM  =       766.04200436
  Solvation  Ediel_sol  =         0.00000000
  ---------------------------------------------------
  free energy    TOTEN  =         0.19455004 eV

  energy without entropy =        0.19455004  energy(sigma->0) =        0.19455004


--------------------------------------------------------------------------------------------------------




--------------------------------------- Iteration      1(   9)  ---------------------------------------


    POTLOK:  cpu time      0.5654: real time      0.5697
    SETDIJ:  cpu time      0.2008: real time      0.2018
     EDDAV:  cpu time      0.1236: real time      0.1244
       DOS:  cpu time      0.0002: real time      0.0002
    CHARGE:  cpu time      0.0426: real time      0.0430
    MIXING:  cpu time      0.0108: real time      0.0109
    --------------------------------------------
      LOOP:  cpu time      0.9434: real time      0.9499

 eigenvalue-minimisations  :    48
 total energy-change (2. order) :-0.1771658E+00  (-0.1687347E-02)
 number of electron       7.0000020 magnetization       0.9995864
 augmentation part        4.4648428 magnetization      -0.0102568

 Broyden mixing:
  rms(total) = 0.56734E-02    rms(broyden)= 0.56734E-02
  rms(prec ) = 0.61653E-02
  weight for this iteration     100.00

 eigenvalues of (default mixing * dielectric matrix)
  average eigenvalue GAMMA=   1.0281
  1.6816  0.9736  0.8167  0.6406

 Free energy of the ion-electron system (eV)
  ---------------------------------------------------
  alpha Z        PSCENC =         0.05142041
  Ewald energy   TEWEN  =       -55.30181893
  -Hartree energ DENC   =      -472.57775455
  -exchange      EXHF   =         0.00000000
  -V(xc)+E(xc)   XCENC  =        24.31565009
  PAW double counting   =       503.69790853     -592.48865835
  entropy T*S    EENTRO =        -0.00000000
  eigenvalues    EBANDS =      -173.72136730
  atomic energy  EATOM  =       766.04200436
  Solvation  Ediel_sol  =         0.00000000
  ---------------------------------------------------
  free energy    TOTEN  =         0.01738425 eV

  energy without entropy =        0.01738425  energy(sigma->0) =        0.01738425


--------------------------------------------------------------------------------------------------------




--------------------------------------- Iteration      1(  10)  ---------------------------------------


    POTLOK:  cpu time      0.5726: real time      0.5772
    SETDIJ:  cpu time      0.2004: real time      0.2014
     EDDAV:  cpu time      0.0927: real time      0.0936
       DOS:  cpu time      0.0002: real time      0.0002
    CHARGE:  cpu time      0.0423: real time      0.0427
    MIXING:  cpu time      0.0108: real time      0.0109
    --------------------------------------------
      LOOP:  cpu time      0.9190: real time      0.9259

 eigenvalue-minimisations  :    32
 total energy-change (2. order) :-0.1521508E+00  (-0.2365943E-02)
 number of electron       7.0000020 magnetization       0.9996860
 augmentation part        4.4645681 magnetization      -0.0072417

 Broyden mixing:
  rms(total) = 0.31891E-02    rms(broyden)= 0.31889E-02
  rms(prec ) = 0.35453E-02
  weight for this iteration     100.00

 eigenvalues of (default mixing * dielectric matrix)
  average eigenvalue GAMMA=   1.0303
  2.0150  1.0391  0.7410  0.7410  0.6156

 Free energy of the ion-electron system (eV)
  ---------------------------------------------------
  alpha Z        PSCENC =         0.05142041
  Ewald energy   TEWEN  =       -55.30181893
  -Hartree energ DENC   =      -472.49537298
  -exchange      EXHF   =         0.00000000
  -V(xc)+E(xc)   XCENC  =        24.17525275
  PAW double counting   =       503.42327233     -592.09774876
  entropy T*S    EENTRO =        -0.00000000
  eigenvalues    EBANDS =      -173.93177573
  atomic energy  EATOM  =       766.04200436
  Solvation  Ediel_sol  =         0.00000000
  ---------------------------------------------------
  free energy    TOTEN  =        -0.13476655 eV

  energy without entropy =       -0.13476655  energy(sigma->0) =       -0.13476655


--------------------------------------------------------------------------------------------------------




--------------------------------------- Iteration      1(  11)  ---------------------------------------


    POTLOK:  cpu time      0.5874: real time      0.5921
    SETDIJ:  cpu time      0.2004: real time      0.2013
     EDDAV:  cpu time      0.1237: real time      0.1248
       DOS:  cpu time      0.0002: real time      0.0002
    CHARGE:  cpu time      0.0421: real time      0.0425
    MIXING:  cpu time      0.0110: real time      0.0111
    --------------------------------------------
      LOOP:  cpu time      0.9647: real time      0.9719

 eigenvalue-minimisations  :    48
 total energy-change (2. order) :-0.4593153E-01  (-0.4540861E-03)
 number of electron       7.0000020 magnetization       0.9998438
 augmentation part        4.4644744 magnetization      -0.0060384

 Broyden mixing:
  rms(total) = 0.16373E-02    rms(broyden)= 0.16369E-02
  rms(prec ) = 0.19481E-02
  weight for this iteration     100.00

 eigenvalues of (default mixing * dielectric matrix)
  average eigenvalue GAMMA=   1.2796
  3.0868  1.4919  0.8376  0.8376  0.7990  0.6243

 Free energy of the ion-electron system (eV)
  ---------------------------------------------------
  alpha Z        PSCENC =         0.05142041
  Ewald energy   TEWEN  =       -55.30181893
  -Hartree energ DENC   =      -472.43662674
  -exchange      EXHF   =         0.00000000
  -V(xc)+E(xc)   XCENC  =        24.13034216
  PAW double counting   =       503.19333835     -591.82776186
  entropy T*S    EENTRO =        -0.00000000
  eigenvalues    EBANDS =      -174.03159583
  atomic energy  EATOM  =       766.04200436
  Solvation  Ediel_sol  =         0.00000000
  ---------------------------------------------------
  free energy    TOTEN  =        -0.18069809 eV

  energy without entropy =       -0.18069809  energy(sigma->0) =       -0.18069809


--------------------------------------------------------------------------------------------------------




--------------------------------------- Iteration      1(  12)  ---------------------------------------


    POTLOK:  cpu time      0.5670: real time      0.5714
    SETDIJ:  cpu time      0.2005: real time      0.2015
     EDDAV:  cpu time      0.0924: real time      0.0931
       DOS:  cpu time      0.0002: real time      0.0002
    CHARGE:  cpu time      0.0417: real time      0.0420
    MIXING:  cpu time      0.0128: real time      0.0129
    --------------------------------------------
      LOOP:  cpu time      0.9146: real time      0.9212

 eigenvalue-minimisations  :    32
 total energy-change (2. order) :-0.3300420E-01  (-0.6085305E-03)
 number of electron       7.0000020 magnetization       0.9998775
 augmentation part        4.4647448 magnetization      -0.0051992

 Broyden mixing:
  rms(total) = 0.10146E-02    rms(broyden)= 0.10144E-02
  rms(prec ) = 0.11576E-02
  weight for this iteration     100.00

 eigenvalues of (default mixing * dielectric matrix)
  average eigenvalue GAMMA=   1.2420
  2.7955  1.8140  0.9743  0.8438  0.8438  0.7980  0.6243

 Free energy of the ion-electron system (eV)
  ---------------------------------------------------
  alpha Z        PSCENC =         0.05142041
  Ewald energy   TEWEN  =       -55.30181893
  -Hartree energ DENC   =      -472.36270609
  -exchange      EXHF   =         0.00000000
  -V(xc)+E(xc)   XCENC  =        24.09696561
  PAW double counting   =       502.78971932     -591.38896658
  entropy T*S    EENTRO =        -0.00000000
  eigenvalues    EBANDS =      -174.14032039
  atomic energy  EATOM  =       766.04200436
  Solvation  Ediel_sol  =         0.00000000
  ---------------------------------------------------
  free energy    TOTEN  =        -0.21370229 eV

  energy without entropy =       -0.21370229  energy(sigma->0) =       -0.21370229


--------------------------------------------------------------------------------------------------------




--------------------------------------- Iteration      1(  13)  ---------------------------------------


    POTLOK:  cpu time      0.5830: real time      0.5871
    SETDIJ:  cpu time      0.2007: real time      0.2017
     EDDAV:  cpu time      0.1393: real time      0.1404
       DOS:  cpu time      0.0002: real time      0.0002
    CHARGE:  cpu time      0.0422: real time      0.0426
    MIXING:  cpu time      0.0115: real time      0.0116
    --------------------------------------------
      LOOP:  cpu time      0.9769: real time      0.9835

 eigenvalue-minimisations  :    56
 total energy-change (2. order) :-0.2960996E-02  (-0.5090279E-04)
 number of electron       7.0000020 magnetization       0.9999459
 augmentation part        4.4643239 magnetization      -0.0050085

 Broyden mixing:
  rms(total) = 0.47516E-03    rms(broyden)= 0.47500E-03
  rms(prec ) = 0.66323E-03
  weight for this iteration     100.00

 eigenvalues of (default mixing * dielectric matrix)
  average eigenvalue GAMMA=   1.3475
  3.8582  1.9075  1.2343  0.7733  0.7733  0.8430  0.6252  0.7656

 Free energy of the ion-electron system (eV)
  ---------------------------------------------------
  alpha Z        PSCENC =         0.05142041
  Ewald energy   TEWEN  =       -55.30181893
  -Hartree energ DENC   =      -472.37373017
  -exchange      EXHF   =         0.00000000
  -V(xc)+E(xc)   XCENC  =        24.09579380
  PAW double counting   =       502.74806102     -591.36821326
  entropy T*S    EENTRO =        -0.00000000
  eigenvalues    EBANDS =      -174.11018051
  atomic energy  EATOM  =       766.04200436
  Solvation  Ediel_sol  =         0.00000000
  ---------------------------------------------------
  free energy    TOTEN  =        -0.21666329 eV

  energy without entropy =       -0.21666329  energy(sigma->0) =       -0.21666329


--------------------------------------------------------------------------------------------------------




--------------------------------------- Iteration      1(  14)  ---------------------------------------


    POTLOK:  cpu time      0.5947: real time      0.5987
    SETDIJ:  cpu time      0.2005: real time      0.2016
     EDDAV:  cpu time      0.0925: real time      0.0932
       DOS:  cpu time      0.0002: real time      0.0002
    CHARGE:  cpu time      0.0415: real time      0.0419
    MIXING:  cpu time      0.0122: real time      0.0123
    --------------------------------------------
      LOOP:  cpu time      0.9417: real time      0.9479

 eigenvalue-minimisations  :    32
 total energy-change (2. order) :-0.5822867E-02  (-0.2757447E-04)
 number of electron       7.0000020 magnetization       0.9999692
 augmentation part        4.4643776 magnetization      -0.0048196

 Broyden mixing:
  rms(total) = 0.26870E-03    rms(broyden)= 0.26870E-03
  rms(prec ) = 0.41001E-03
  weight for this iteration     100.00

 eigenvalues of (default mixing * dielectric matrix)
  average eigenvalue GAMMA=   1.3816
  3.9324  2.1813  1.5341  1.0093  0.8838  0.7831  0.7831  0.6258  0.7014

 Free energy of the ion-electron system (eV)
  ---------------------------------------------------
  alpha Z        PSCENC =         0.05142041
  Ewald energy   TEWEN  =       -55.30181893
  -Hartree energ DENC   =      -472.36300107
  -exchange      EXHF   =         0.00000000
  -V(xc)+E(xc)   XCENC  =        24.08970020
  PAW double counting   =       502.62654736     -591.24446520
  entropy T*S    EENTRO =        -0.00000000
  eigenvalues    EBANDS =      -174.12287328
  atomic energy  EATOM  =       766.04200436
  Solvation  Ediel_sol  =         0.00000000
  ---------------------------------------------------
  free energy    TOTEN  =        -0.22248616 eV

  energy without entropy =       -0.22248616  energy(sigma->0) =       -0.22248616


--------------------------------------------------------------------------------------------------------




--------------------------------------- Iteration      1(  15)  ---------------------------------------


    POTLOK:  cpu time      0.5949: real time      0.5992
    SETDIJ:  cpu time      0.2006: real time      0.2015
     EDDAV:  cpu time      0.0925: real time      0.0932
       DOS:  cpu time      0.0002: real time      0.0002
    CHARGE:  cpu time      0.0417: real time      0.0420
    MIXING:  cpu time      0.0119: real time      0.0123
    --------------------------------------------
      LOOP:  cpu time      0.9418: real time      0.9485

 eigenvalue-minimisations  :    32
 total energy-change (2. order) :-0.1630718E-02  (-0.2006732E-04)
 number of electron       7.0000020 magnetization       1.0000057
 augmentation part        4.4642335 magnetization      -0.0047156

 Broyden mixing:
  rms(total) = 0.26072E-03    rms(broyden)= 0.26069E-03
  rms(prec ) = 0.35017E-03
  weight for this iteration     100.00

 eigenvalues of (default mixing * dielectric matrix)
  average eigenvalue GAMMA=   1.4717
  4.5149  2.6864  1.6943  1.1503  0.8946  0.8946  0.8206  0.8206  0.6203  0.6203

 Free energy of the ion-electron system (eV)
  ---------------------------------------------------
  alpha Z        PSCENC =         0.05142041
  Ewald energy   TEWEN  =       -55.30181893
  -Hartree energ DENC   =      -472.37466849
  -exchange      EXHF   =         0.00000000
  -V(xc)+E(xc)   XCENC  =        24.08921977
  PAW double counting   =       502.62774511     -591.24917632
  entropy T*S    EENTRO =        -0.00000000
  eigenvalues    EBANDS =      -174.10884277
  atomic energy  EATOM  =       766.04200436
  Solvation  Ediel_sol  =         0.00000000
  ---------------------------------------------------
  free energy    TOTEN  =        -0.22411688 eV

  energy without entropy =       -0.22411688  energy(sigma->0) =       -0.22411688


--------------------------------------------------------------------------------------------------------




--------------------------------------- Iteration      1(  16)  ---------------------------------------


    POTLOK:  cpu time      0.6059: real time      0.6104
    SETDIJ:  cpu time      0.2007: real time      0.2016
     EDDAV:  cpu time      0.0946: real time      0.0954
       DOS:  cpu time      0.0002: real time      0.0002
    CHARGE:  cpu time      0.0427: real time      0.0431
    MIXING:  cpu time      0.0119: real time      0.0120
    --------------------------------------------
      LOOP:  cpu time      0.9560: real time      0.9627

 eigenvalue-minimisations  :    32
 total energy-change (2. order) :-0.2975513E-02  (-0.2953427E-04)
 number of electron       7.0000020 magnetization       1.0000126
 augmentation part        4.4642312 magnetization      -0.0046168

 Broyden mixing:
  rms(total) = 0.15998E-03    rms(broyden)= 0.15997E-03
  rms(prec ) = 0.20793E-03
  weight for this iteration     100.00

 eigenvalues of (default mixing * dielectric matrix)
  average eigenvalue GAMMA=   1.5621
  5.3403  3.1175  1.8326  1.4004  1.0716  0.8546  0.8014  0.7431  0.7431  0.6290
  0.6495

 Free energy of the ion-electron system (eV)
  ---------------------------------------------------
  alpha Z        PSCENC =         0.05142041
  Ewald energy   TEWEN  =       -55.30181893
  -Hartree energ DENC   =      -472.37595751
  -exchange      EXHF   =         0.00000000
  -V(xc)+E(xc)   XCENC  =        24.08653282
  PAW double counting   =       502.58945665     -591.20715047
  entropy T*S    EENTRO =        -0.00000000
  eigenvalues    EBANDS =      -174.11157971
  atomic energy  EATOM  =       766.04200436
  Solvation  Ediel_sol  =         0.00000000
  ---------------------------------------------------
  free energy    TOTEN  =        -0.22709239 eV

  energy without entropy =       -0.22709239  energy(sigma->0) =       -0.22709239


--------------------------------------------------------------------------------------------------------




--------------------------------------- Iteration      1(  17)  ---------------------------------------


    POTLOK:  cpu time      0.5777: real time      0.5818
    SETDIJ:  cpu time      0.2014: real time      0.2023
     EDDAV:  cpu time      0.1078: real time      0.1086
       DOS:  cpu time      0.0002: real time      0.0002
    CHARGE:  cpu time      0.0417: real time      0.0420
    MIXING:  cpu time      0.0122: real time      0.0123
    --------------------------------------------
      LOOP:  cpu time      0.9409: real time      0.9472

 eigenvalue-minimisations  :    40
 total energy-change (2. order) :-0.7200974E-03  (-0.9801872E-06)
 number of electron       7.0000020 magnetization       1.0000096
 augmentation part        4.4642979 magnetization      -0.0046348

 Broyden mixing:
  rms(total) = 0.86690E-04    rms(broyden)= 0.86687E-04
  rms(prec ) = 0.12435E-03
  weight for this iteration     100.00

 eigenvalues of (default mixing * dielectric matrix)
  average eigenvalue GAMMA=   1.6471
  5.7781  3.5163  2.2703  1.6078  1.2212  0.9351  0.9351  0.7789  0.7789  0.6782
  0.6326  0.6326

 Free energy of the ion-electron system (eV)
  ---------------------------------------------------
  alpha Z        PSCENC =         0.05142041
  Ewald energy   TEWEN  =       -55.30181893
  -Hartree energ DENC   =      -472.37687824
  -exchange      EXHF   =         0.00000000
  -V(xc)+E(xc)   XCENC  =        24.08581846
  PAW double counting   =       502.58378853     -591.19760338
  entropy T*S    EENTRO =        -0.00000000
  eigenvalues    EBANDS =      -174.11454368
  atomic energy  EATOM  =       766.04200436
  Solvation  Ediel_sol  =         0.00000000
  ---------------------------------------------------
  free energy    TOTEN  =        -0.22781249 eV

  energy without entropy =       -0.22781249  energy(sigma->0) =       -0.22781249


--------------------------------------------------------------------------------------------------------




--------------------------------------- Iteration      1(  18)  ---------------------------------------


    POTLOK:  cpu time      0.5777: real time      0.5819
    SETDIJ:  cpu time      0.2006: real time      0.2016
     EDDAV:  cpu time      0.0924: real time      0.0929
       DOS:  cpu time      0.0002: real time      0.0002
    CHARGE:  cpu time      0.0411: real time      0.0412
    MIXING:  cpu time      0.0125: real time      0.0126
    --------------------------------------------
      LOOP:  cpu time      0.9244: real time      0.9304

 eigenvalue-minimisations  :    32
 total energy-change (2. order) :-0.3859728E-03  (-0.3162850E-05)
 number of electron       7.0000020 magnetization       1.0000063
 augmentation part        4.4642895 magnetization      -0.0046206

 Broyden mixing:
  rms(total) = 0.75950E-04    rms(broyden)= 0.75949E-04
  rms(prec ) = 0.89229E-04
  weight for this iteration     100.00

 eigenvalues of (default mixing * dielectric matrix)
  average eigenvalue GAMMA=   1.6289
  6.1149  3.4886  2.4573  1.6707  1.3319  0.9860  0.8659  0.8659  0.7511  0.7511
  0.6663  0.6255  0.6003

 Free energy of the ion-electron system (eV)
  ---------------------------------------------------
  alpha Z        PSCENC =         0.05142041
  Ewald energy   TEWEN  =       -55.30181893
  -Hartree energ DENC   =      -472.38046425
  -exchange      EXHF   =         0.00000000
  -V(xc)+E(xc)   XCENC  =        24.08560573
  PAW double counting   =       502.58542484     -591.19785114
  entropy T*S    EENTRO =        -0.00000000
  eigenvalues    EBANDS =      -174.11251947
  atomic energy  EATOM  =       766.04200436
  Solvation  Ediel_sol  =         0.00000000
  ---------------------------------------------------
  free energy    TOTEN  =        -0.22819846 eV

  energy without entropy =       -0.22819846  energy(sigma->0) =       -0.22819846


--------------------------------------------------------------------------------------------------------




--------------------------------------- Iteration      1(  19)  ---------------------------------------


    POTLOK:  cpu time      0.5780: real time      0.5823
    SETDIJ:  cpu time      0.2005: real time      0.2015
     EDDAV:  cpu time      0.1076: real time      0.1085
       DOS:  cpu time      0.0002: real time      0.0002
    CHARGE:  cpu time      0.0440: real time      0.0443
    MIXING:  cpu time      0.0125: real time      0.0126
    --------------------------------------------
      LOOP:  cpu time      0.9427: real time      0.9493

 eigenvalue-minimisations  :    40
 total energy-change (2. order) :-0.9954735E-04  (-0.7339483E-07)
 number of electron       7.0000020 magnetization       1.0000020
 augmentation part        4.4642863 magnetization      -0.0046401

 Broyden mixing:
  rms(total) = 0.35959E-04    rms(broyden)= 0.35958E-04
  rms(prec ) = 0.49010E-04
  weight for this iteration     100.00

 eigenvalues of (default mixing * dielectric matrix)
  average eigenvalue GAMMA=   1.6843
  6.4181  3.5650  2.8992  1.9831  1.5514  1.1871  0.8897  0.8897  0.7803  0.7803
  0.7545  0.6288  0.6288  0.6242

 Free energy of the ion-electron system (eV)
  ---------------------------------------------------
  alpha Z        PSCENC =         0.05142041
  Ewald energy   TEWEN  =       -55.30181893
  -Hartree energ DENC   =      -472.38062257
  -exchange      EXHF   =         0.00000000
  -V(xc)+E(xc)   XCENC  =        24.08551699
  PAW double counting   =       502.58068225     -591.19447739
  entropy T*S    EENTRO =        -0.00000000
  eigenvalues    EBANDS =      -174.11100311
  atomic energy  EATOM  =       766.04200436
  Solvation  Ediel_sol  =         0.00000000
  ---------------------------------------------------
  free energy    TOTEN  =        -0.22829801 eV

  energy without entropy =       -0.22829801  energy(sigma->0) =       -0.22829801


--------------------------------------------------------------------------------------------------------




--------------------------------------- Iteration      1(  20)  ---------------------------------------


    POTLOK:  cpu time      0.5730: real time      0.5767
    SETDIJ:  cpu time      0.2007: real time      0.2018
     EDDAV:  cpu time      0.1075: real time      0.1083
       DOS:  cpu time      0.0002: real time      0.0002
    CHARGE:  cpu time      0.0426: real time      0.0429
    MIXING:  cpu time      0.0125: real time      0.0126
    --------------------------------------------
      LOOP:  cpu time      0.9365: real time      0.9425

 eigenvalue-minimisations  :    40
 total energy-change (2. order) :-0.8686521E-04  (-0.4890106E-07)
 number of electron       7.0000020 magnetization       1.0000001
 augmentation part        4.4642702 magnetization      -0.0046469

 Broyden mixing:
  rms(total) = 0.36508E-04    rms(broyden)= 0.36507E-04
  rms(prec ) = 0.41180E-04
  weight for this iteration     100.00

 eigenvalues of (default mixing * dielectric matrix)
  average eigenvalue GAMMA=   1.7902
  6.8803  4.8098  3.1223  2.1378  1.6215  1.2899  1.1049  0.8896  0.8896  0.7818
  0.7818  0.6990  0.6237  0.6105  0.6105

 Free energy of the ion-electron system (eV)
  ---------------------------------------------------
  alpha Z        PSCENC =         0.05142041
  Ewald energy   TEWEN  =       -55.30181893
  -Hartree energ DENC   =      -472.38111628
  -exchange      EXHF   =         0.00000000
  -V(xc)+E(xc)   XCENC  =        24.08548562
  PAW double counting   =       502.57856472     -591.19383028
  entropy T*S    EENTRO =        -0.00000000
  eigenvalues    EBANDS =      -174.10909449
  atomic energy  EATOM  =       766.04200436
  Solvation  Ediel_sol  =         0.00000000
  ---------------------------------------------------
  free energy    TOTEN  =        -0.22838487 eV

  energy without entropy =       -0.22838487  energy(sigma->0) =       -0.22838487


--------------------------------------------------------------------------------------------------------




--------------------------------------- Iteration      1(  21)  ---------------------------------------


    POTLOK:  cpu time      0.5874: real time      0.5921
    SETDIJ:  cpu time      0.2005: real time      0.2016
     EDDAV:  cpu time      0.1077: real time      0.1085
       DOS:  cpu time      0.0002: real time      0.0002
    --------------------------------------------
      LOOP:  cpu time      0.8958: real time      0.9023

 eigenvalue-minimisations  :    40
 total energy-change (2. order) :-0.8832099E-05  (-0.1053526E-07)
 number of electron       7.0000020 magnetization       1.0000001
 augmentation part        4.4642702 magnetization      -0.0046469

 Free energy of the ion-electron system (eV)
  ---------------------------------------------------
  alpha Z        PSCENC =         0.05142041
  Ewald energy   TEWEN  =       -55.30181893
  -Hartree energ DENC   =      -472.38086738
  -exchange      EXHF   =         0.00000000
  -V(xc)+E(xc)   XCENC  =        24.08547431
  PAW double counting   =       502.57904534     -591.19417695
  entropy T*S    EENTRO =        -0.00000000
  eigenvalues    EBANDS =      -174.10947484
  atomic energy  EATOM  =       766.04200436
  Solvation  Ediel_sol  =         0.00000000
  ---------------------------------------------------
  free energy    TOTEN  =        -0.22839370 eV

  energy without entropy =       -0.22839370  energy(sigma->0) =       -0.22839370


--------------------------------------------------------------------------------------------------------




 average (electrostatic) potential at core
  the test charge radii are     0.9254
  (the norm of the test charge is              1.0000)
       1 -54.3180
 
 
 
 E-fermi :  -2.2189     XC(G=0):  -0.1930     alpha+bet : -0.0294

 Fermi energy:        -2.2188973626

 spin component 1

 k-point     1 :       0.0000    0.0000    0.0000
  band No.  band energies     occupation 
      1     -28.5586      1.00000
      2     -28.5586      1.00000
      3     -28.5586      1.00000
      4      -3.0141      1.00000
      5      -0.9066      0.00000
      6      -0.9064      0.00000
      7      -0.9063      0.00000
      8      -0.1892      0.00000
 Fermi energy:        -2.2188973626

 spin component 2

 k-point     1 :       0.0000    0.0000    0.0000
  band No.  band energies     occupation 
      1     -28.4732      1.00000
      2     -28.4732      1.00000
      3     -28.4732      1.00000
      4      -1.4237      0.00000
      5       0.0312      0.00000
      6       0.4141      0.00000
      7       0.4186      0.00000
      8       0.4453      0.00000


--------------------------------------------------------------------------------------------------------


 soft charge-density along one line, spin component           1
         0         1         2         3         4         5         6         7         8         9
 total charge-density along one line
 
 soft charge-density along one line, spin component           2
         0         1         2         3         4         5         6         7         8         9
 total charge-density along one line
 
 pseudopotential strength for first ion, spin component:           1
-30.779   0.000   0.000   5.201  -0.000  -0.000   0.000   0.000
  0.000 -30.779   0.000  -0.000   5.201  -0.000  -0.000  -0.000
  0.000   0.000 -30.779  -0.000  -0.000   5.201   0.000   0.000
  5.201  -0.000  -0.000   5.615   0.000   0.000  -0.000  -0.000
 -0.000   5.201  -0.000   0.000   5.615   0.000  -0.000  -0.000
 -0.000  -0.000   5.201   0.000   0.000   5.615  -0.000  -0.000
  0.000  -0.000   0.000  -0.000  -0.000  -0.000   1.416   7.115
  0.000  -0.000   0.000  -0.000  -0.000  -0.000   7.115  35.220
 pseudopotential strength for first ion, spin component:           2
-30.751  -0.000  -0.000   5.192   0.000   0.000  -0.000  -0.000
 -0.000 -30.751  -0.000   0.000   5.192   0.000  -0.000  -0.000
 -0.000  -0.000 -30.751   0.000   0.000   5.192   0.000   0.000
  5.192   0.000   0.000   5.619  -0.000  -0.000  -0.000  -0.000
  0.000   5.192   0.000  -0.000   5.619   0.000   0.000  -0.000
  0.000   0.000   5.192  -0.000   0.000   5.619  -0.000  -0.000
 -0.000  -0.000   0.000  -0.000   0.000  -0.000   1.415   7.113
 -0.000  -0.000   0.000  -0.000  -0.000  -0.000   7.113  35.214
 total augmentation occupancy for first ion, spin component:           1
  2.000  -0.000   0.000  -0.000  -0.000   0.000   0.000  -0.000
 -0.000   2.000  -0.000  -0.000  -0.000  -0.000  -0.000   0.000
  0.000  -0.000   2.000   0.000   0.000  -0.000   0.000  -0.000
 -0.000  -0.000   0.000   0.000   0.000  -0.000  -0.000  -0.000
 -0.000  -0.000   0.000   0.000   0.000  -0.000  -0.000  -0.000
  0.000  -0.000  -0.000  -0.000  -0.000   0.000  -0.000  -0.000
  0.000  -0.000   0.000  -0.000  -0.000  -0.000   1.004   0.001
 -0.000   0.000  -0.000  -0.000  -0.000  -0.000   0.001   0.000
 total augmentation occupancy for first ion, spin component:           2
  0.001   0.000  -0.000   0.004   0.000  -0.000   0.000  -0.000
  0.000   0.001  -0.000   0.000   0.004  -0.000   0.000  -0.000
 -0.000  -0.000   0.001  -0.000  -0.000   0.004   0.000   0.000
  0.004   0.000  -0.000  -0.000  -0.000   0.000  -0.000  -0.000
  0.000   0.004  -0.000  -0.000  -0.000   0.000  -0.000   0.000
 -0.000  -0.000   0.004   0.000   0.000  -0.000  -0.000  -0.000
  0.000   0.000   0.000  -0.000  -0.000  -0.000   1.004   0.001
 -0.000  -0.000   0.000  -0.000   0.000  -0.000   0.001   0.000


------------------------ aborting loop because EDIFF is reached ----------------------------------------


    CHARGE:  cpu time      0.0412: real time      0.0416
    FORLOC:  cpu time      0.0036: real time      0.0036
    FORNL :  cpu time      0.0073: real time      0.0074
    STRESS:  cpu time      0.0302: real time      0.0304
    FORCOR:  cpu time      0.5677: real time      0.5721
    FORHAR:  cpu time      0.0569: real time      0.0574
    MIXING:  cpu time      0.0131: real time      0.0132
    OFIELD:  cpu time      0.0000: real time      0.0000

  FORCE on cell =-STRESS in cart. coord.  units (eV):
  Direction    XX          YY          ZZ          XY          YZ          ZX
  --------------------------------------------------------------------------------------
  Alpha Z     0.05142     0.05142     0.05142
  Ewald     -18.12359   -18.43417   -18.74406     0.00000     0.00000     0.00000
  Hartree   157.76591   157.45957   157.15388     0.00000    -0.00000     0.00000
  E(xc)     -37.29410   -37.29410   -37.29410    -0.00000    -0.00000    -0.00000
  Local    -170.24211  -169.62520  -169.00963    -0.00000     0.00000    -0.00000
  n-local   -22.41114   -22.41113   -22.41114    -0.00000    -0.00000    -0.00000
  augment    42.02649    42.02602    42.02548    -0.00000    -0.00000    -0.00000
  Kinetic    48.22351    48.22351    48.22353    -0.00000     0.00000    -0.00000
  Fock        0.00000     0.00000     0.00000     0.00000     0.00000     0.00000
  -------------------------------------------------------------------------------------
  Total      -0.00361    -0.00408    -0.00461    -0.00000    -0.00000    -0.00000
  in kB      -0.00097    -0.00110    -0.00125    -0.00000    -0.00000    -0.00000
  external pressure =       -0.00 kB  Pullay stress =        0.00 kB


 VOLUME and BASIS-vectors are now :
 -----------------------------------------------------------------------------
  energy-cutoff  :      520.00
  volume of cell :     5929.56
      direct lattice vectors                 reciprocal lattice vectors
    18.000000000  0.000000000  0.000000000     0.055555556 -0.000000000  0.000000000
     0.000000000 18.100000000  0.000000000     0.000000000  0.055248619  0.000000000
     0.000000000  0.000000000 18.200000000    -0.000000000 -0.000000000  0.054945055

  length of vectors
    18.000000000 18.100000000 18.200000000     0.055555556  0.055248619  0.054945055


 FORCES acting on ions
    electron-ion (+dipol)            ewald-force                    non-local-force                 convergence-correction
 -----------------------------------------------------------------------------------------------
   0.187E-06 -.109E-05 -.129E-05   0.104E-16 0.346E-17 -.969E-17   0.147E-05 -.115E-05 -.189E-05   -.158E-05 0.218E-05 0.318E-05
 -----------------------------------------------------------------------------------------------
   0.187E-06 -.109E-05 -.129E-05   0.104E-16 0.346E-17 -.969E-17   0.147E-05 -.115E-05 -.189E-05   -.158E-05 0.218E-05 0.318E-05
 
 
 POSITION                                       TOTAL-FORCE (eV/Angst)
 -----------------------------------------------------------------------------------
      0.00000      0.00000      0.00000         0.000000     -0.000000      0.000000
 -----------------------------------------------------------------------------------
    total drift:                                0.000000     -0.000000      0.000000


--------------------------------------------------------------------------------------------------------



  FREE ENERGIE OF THE ION-ELECTRON SYSTEM (eV)
  ---------------------------------------------------
  free  energy   TOTEN  =        -0.22839370 eV

  energy  without entropy=       -0.22839370  energy(sigma->0) =       -0.22839370
 


--------------------------------------------------------------------------------------------------------


    POTLOK:  cpu time      0.7691: real time      0.7742


--------------------------------------------------------------------------------------------------------


     LOOP+:  cpu time     18.1167: real time     18.2458
    4ORBIT:  cpu time      0.0000: real time      0.0000

 total amount of memory used by VASP MPI-rank0    81698. kBytes
=======================================================================

   base      :      30000. kBytes
   nonl-proj :        198. kBytes
   fftplans  :      14937. kBytes
   grid      :      36243. kBytes
   one-center:          3. kBytes
   wavefun   :        317. kBytes
 
  
  
 General timing and accounting informations for this job:
 ========================================================
  
                  Total CPU time used (sec):       20.531
                            User time (sec):       17.892
                          System time (sec):        2.639
                         Elapsed time (sec):       21.220
  
                   Maximum memory used (kb):      494368.
                   Average memory used (kb):          N/A
  
                          Minor page faults:       107384
                          Major page faults:           22
                 Voluntary context switches:         1297
