 vasp.6.4.2 20Jul23 (build Aug 07 2024 12:45:50) gamma-only                     
  
 executed on             LinuxIFC date 2026.09.30  12:19:24
 running   64 mpi-ranks, on    1 nodes
 distrk:  each k-point on   64 cores,    1 groups
 distr:  one band on NCORE=  32 cores,    2 groups


--------------------------------------------------------------------------------------------------------


 INCAR:
   ALGO = Normal
   EDIFF = 1e-05
   EFERMI = Midgap
   ENCUT = 520.0
   GGA = Pe
   GGA_COMPAT = False
   IBRION = -1
   ISMEAR = 0
   ISPIN = 2
   ISYM = 0
   LAECHG = False
   LASPH = True
   LCHARG = False
   LMAXMIX = 6
   LMIXTAU = True
   LREAL = False
   LWAVE = False
   MAGMOM = 1*2.0
   NCORE = 32
   NELM = 400
   NSW = 0
   PREC = Accurate
   SIGMA = 0.05
   SYSTEM = Ge_atom_ispin2

 POTCAR:    PAW_PBE Ge_d 03Jul2007                
 -----------------------------------------------------------------------------
|                                                                             |
|           W    W    AA    RRRRR   N    N  II  N    N   GGGG   !!!           |
|           W    W   A  A   R    R  NN   N  II  NN   N  G    G  !!!           |
|           W    W  A    A  R    R  N N  N  II  N N  N  G       !!!           |
|           W WW W  AAAAAA  RRRRR   N  N N  II  N  N N  G  GGG   !            |
|           WW  WW  A    A  R   R   N   NN  II  N   NN  G    G                |
|           W    W  A    A  R    R  N    N  II  N    N   GGGG   !!!           |
|                                                                             |
|     For optimal performance we recommend to set                             |
|       NCORE = 2 up to number-of-cores-per-socket                            |
|     NCORE specifies how many cores store one orbital (NPAR=cpu/NCORE).      |
|     This setting can greatly improve the performance of VASP for DFT.       |
|     The default, NCORE=1 might be grossly inefficient on modern             |
|     multi-core architectures or massively parallel machines. Do your        |
|     own testing! More info at https://www.vasp.at/wiki/index.php/NCORE      |
|     Unfortunately you need to use the default for GW and RPA                |
|     calculations (for HF NCORE is supported but not extensively tested      |
|     yet).                                                                   |
|                                                                             |
 -----------------------------------------------------------------------------

 POTCAR:    PAW_PBE Ge_d 03Jul2007                
   SHA256 =  944b26c40d2d7c4f4eb1ff3a2e8dbfdd7129146276cd341854bfd5c0e57780ed Ge_d/POTCAR           
   COPYR  = (c) Copyright 03Jul2007 Georg Kresse                                                    
   COPYR  = This file is part of the software VASP. Any use, copying, and all other rights are regul
   COPYR  = If you do not have a valid VASP license, you may not use, copy or distribute this file. 
   VRHFIN =Ge: 3d4s4p                                                                               
   LEXCH  = PE                                                                                      
   EATOM  =  2596.2402 eV,  190.8183 Ry                                                             
                                                                                                    
   TITEL  = PAW_PBE Ge_d 03Jul2007                                                                  
   LULTRA =        F    use ultrasoft PP ?                                                          
   IUNSCR =        1    unscreen: 0-lin 1-nonlin 2-no                                               
   RPACOR =    2.000    partial core radius                                                         
   POMASS =   72.610; ZVAL   =   14.000    mass and valenz                                          
   RCORE  =    2.300    outmost cutoff radius                                                       
   RWIGS  =    2.300; RWIGS  =    1.217    wigner-seitz radius (au A)                               
   ENMAX  =  310.294; ENMIN  =  232.720 eV                                                          
   ICORE  =        3    local potential                                                             
   LCOR   =        T    correct aug charges                                                         
   LPAW   =        T    paw PP                                                                      
   EAUG   =  531.356                                                                                
   DEXC   =    0.000                                                                                
   RMAX   =    2.342    core radius for proj-oper                                                   
   RAUG   =    1.300    factor for augmentation sphere                                              
   RDEP   =    2.318    radius for radial grids                                                     
   RDEPT  =    1.783    core radius for aug-charge                                                  
                                                                                                    
   Atomic configuration                                                                             
    9 entries                                                                                       
     n  l   j            E        occ.                                                              
     1  0  0.50    -10959.8463   2.0000                                                             
     2  0  0.50     -1371.6056   2.0000                                                             
     2  1  1.50     -1198.4791   6.0000                                                             
     3  0  0.50      -168.4733   2.0000                                                             
     3  1  1.50      -115.6019   6.0000                                                             
     3  2  2.50       -29.3106  10.0000                                                             
     4  0  0.50       -11.7309   2.0000                                                             
     4  1  0.50        -3.8952   2.0000                                                             
     4  3  2.50        -4.0817   0.0000                                                             
   Description                                                                                      
     l       E           TYP  RCUT    TYP  RCUT                                                     
     2    -29.3105938     23  2.200                                                                 
     2    -13.6058260     23  2.200                                                                 
     0    -11.7309493     23  2.300                                                                 
     0     -7.4578696     23  2.300                                                                 
     1     -3.8952261     23  2.300                                                                 
     1      6.1178114     23  2.300                                                                 
     3     -1.3605826     23  2.300                                                                 
  local pseudopotential read in
  partial core-charges read in
  partial kinetic energy density read in
  atomic valenz-charges read in
  non local Contribution for L=           2  read in
    real space projection operators read in
  non local Contribution for L=           2  read in
    real space projection operators read in
  non local Contribution for L=           0  read in
    real space projection operators read in
  non local Contribution for L=           0  read in
    real space projection operators read in
  non local Contribution for L=           1  read in
    real space projection operators read in
  non local Contribution for L=           1  read in
    real space projection operators read in
    PAW grid and wavefunctions read in
 
   number of l-projection  operators is LMAX  =           6
   number of lm-projection operators is LMMAX =          18
 
  PAW_PBE Ge_d 03Jul2007                :
 energy of atom  1       EATOM=-2596.2402
 kinetic energy error for atom=    0.0028 (will be added to EATOM!!)
 
 
 POSCAR: Ge1
  positions in direct lattice
  No initial velocities read in
 exchange correlation table for  LEXCH =        8
   RHO(1)=    0.500       N(1)  =     2000
   RHO(2)=  100.500       N(2)  =     4000
 


--------------------------------------------------------------------------------------------------------


 ion  position               nearest neighbor table
   1  0.000  0.000  0.000-
 

IMPORTANT INFORMATION: All symmetrisations will be switched off!
NOSYMM: (Re-)initialisation of all symmetry stuff for point group C_1.


----------------------------------------------------------------------------------------

                                     Primitive cell                                     

  volume of cell :    3442.8000

  direct lattice vectors                    reciprocal lattice vectors
    15.000000000  0.000000000  0.000000000     0.066666667 -0.000000000  0.000000000
     0.000000000 15.100000000  0.000000000     0.000000000  0.066225166  0.000000000
     0.000000000  0.000000000 15.200000000    -0.000000000 -0.000000000  0.065789474

  length of vectors
    15.000000000 15.100000000 15.200000000     0.066666667  0.066225166  0.065789474

  position of ions in fractional coordinates (direct lattice)
     0.000000000  0.000000000  0.000000000

  ion indices of the primitive-cell ions
   primitive index   ion index
                 1           1

----------------------------------------------------------------------------------------

 
 
 KPOINTS: Automatic kpoint scheme                 

Automatic generation of k-mesh.
 Grid dimensions read from file:
 generate k-points for:    1    1    1

 Generating k-lattice:

  Cartesian coordinates                     Fractional coordinates (reciprocal lattice)
     0.066666667 -0.000000000  0.000000000     1.000000000 -0.000000000  0.000000000
     0.000000000  0.066225166  0.000000000     0.000000000  1.000000000  0.000000000
    -0.000000000 -0.000000000  0.065789474     0.000000000 -0.000000000  1.000000000

  Length of vectors
     0.066666667  0.066225166  0.065789474

  Shift w.r.t. Gamma in fractional coordinates (k-lattice)
     0.000000000  0.000000000  0.000000000

 
 Subroutine IBZKPT returns following result:
 ===========================================
 
 Found      1 irreducible k-points:
 
 Following reciprocal coordinates:
            Coordinates               Weight
  0.000000  0.000000  0.000000      1.000000
 
 Following cartesian coordinates:
            Coordinates               Weight
  0.000000  0.000000  0.000000      1.000000
 


--------------------------------------------------------------------------------------------------------




 Dimension of arrays:
   k-points           NKPTS =      1   k-points in BZ     NKDIM =      1   number of bands    NBANDS=     12
   number of dos      NEDOS =    301   number of ions     NIONS =      1
   non local maximal  LDIM  =      6   non local SUM 2l+1 LMDIM =     18
   total plane-waves  NPLWV = ******
   max r-space proj   IRMAX =      1   max aug-charges    IRDMAX=  14902
   dimension x,y,z NGX =   112 NGY =  112 NGZ =  120
   dimension x,y,z NGXF=   224 NGYF=  224 NGZF=  240
   support grid    NGXF=   224 NGYF=  224 NGZF=  240
   ions per type =               1
   NGX,Y,Z   is equivalent  to a cutoff of  12.41, 12.33, 13.12 a.u.
   NGXF,Y,Z  is equivalent  to a cutoff of  24.83, 24.66, 26.25 a.u.

 SYSTEM =  Ge_atom_ispin2                          
 POSCAR =  Ge1                                     

 Startparameter for this run:
   NWRITE =      2    write-flag & timer
   PREC   = accura    normal or accurate (medium, high low for compatibility)
   ISTART =      0    job   : 0-new  1-cont  2-samecut
   ICHARG =      2    charge: 1-file 2-atom 10-const
   ISPIN  =      2    spin polarized calculation?
   LNONCOLLINEAR =      F non collinear calculations
   LSORBIT =      F    spin-orbit coupling
   INIWAV =      1    electr: 0-lowe 1-rand  2-diag
   LASPH  =      T    aspherical Exc in radial PAW
 Electronic Relaxation 1
   ENCUT  =  520.0 eV  38.22 Ry    6.18 a.u.  27.89 28.08 28.26*2*pi/ulx,y,z
   ENINI  =  520.0     initial cutoff
   ENAUG  =  531.4 eV  augmentation charge cutoff
   NELM   =    400;   NELMIN=  2; NELMDL= -5     # of ELM steps 
   EDIFF  = 0.1E-04   stopping-criterion for ELM
   LREAL  =      F    real-space projection
   NLSPLINE    = F    spline interpolate recip. space projectors
   LCOMPAT=      F    compatible to vasp.4.4
   GGA_COMPAT  = F    GGA compatible to vasp.4.4-vasp.4.6
   LMAXPAW     = -100 max onsite density
   LMAXMIX     =    6 max onsite mixed and CHGCAR
   VOSKOWN=      0    Vosko Wilk Nusair interpolation
   ROPT   =    0.00000
 Ionic relaxation
   EDIFFG = 0.1E-03   stopping-criterion for IOM
   NSW    =      0    number of steps for IOM
   NBLOCK =      1;   KBLOCK =      1    inner block; outer block 
   IBRION =     -1    ionic relax: 0-MD 1-quasi-New 2-CG
   NFREE  =      0    steps in history (QN), initial steepest desc. (CG)
   ISIF   =      2    stress and relaxation
   IWAVPR =     10    prediction:  0-non 1-charg 2-wave 3-comb
   ISYM   =      0    0-nonsym 1-usesym 2-fastsym
   LCORR  =      T    Harris-Foulkes like correction to forces

   POTIM  = 0.5000    time-step for ionic-motion
   TEIN   =    0.0    initial temperature
   TEBEG  =    0.0;   TEEND  =   0.0 temperature during run
   SMASS  =  -3.00    Nose mass-parameter (am)
   estimated Nose-frequenzy (Omega)   =  0.10E-29 period in steps = 0.13E+47 mass=  -0.514E-26a.u.
   SCALEE = 1.0000    scale energy and forces
   NPACO  =    256;   APACO  = 10.0  distance and # of slots for P.C.
   PSTRESS=    0.0 pullay stress

  Mass of Ions in am
   POMASS =  72.61
  Ionic Valenz
   ZVAL   =  14.00
  Atomic Wigner-Seitz radii
   RWIGS  =  -1.00
  virtual crystal weights 
   VCA    =   1.00
   NELECT =      14.0000    total number of electrons
   NUPDOWN=      -1.0000    fix difference up-down

 DOS related values:
   EMIN   =  10.00;   EMAX   =-10.00  energy-range for DOS
   EFERMI =   0.00;   METHOD = MIDGAP      
   ISMEAR =     0;   SIGMA  =   0.05  broadening in eV -4-tet -1-fermi 0-gaus

 Electronic relaxation 2 (details)
   IALGO  =     38    algorithm
   LDIAG  =      T    sub-space diagonalisation (order eigenvalues)
   LSUBROT=      F    optimize rotation matrix (better conditioning)
   TURBO    =      0    0=normal 1=particle mesh
   IRESTART =      0    0=no restart 2=restart with 2 vectors
   NREBOOT  =      0    no. of reboots
   NMIN     =      0    reboot dimension
   EREF     =   0.00    reference energy to select bands
   IMIX   =      4    mixing-type and parameters
     AMIX     =   0.40;   BMIX     =  1.00
     AMIX_MAG =   1.60;   BMIX_MAG =  1.00
     AMIN     =   0.10
     WC   =   100.;   INIMIX=   1;  MIXPRE=   1;  MAXMIX= -45

 Intra band minimization:
   WEIMIN = 0.0000     energy-eigenvalue tresh-hold
   EBREAK =  0.21E-06  absolut break condition
   DEPER  =   0.30     relativ break condition  

   TIME   =   0.40     timestep for ELM

  volume/ion in A,a.u.               =    3442.80     23233.16
  Fermi-wavevector in a.u.,A,eV,Ry     =   0.261305  0.493794  0.929006  0.068280
  Thomas-Fermi vector in A             =   1.090002
 
 Write flags
   LWAVE        =      F    write WAVECAR
   LDOWNSAMPLE  =      F    k-point downsampling of WAVECAR
   LCHARG       =      F    write CHGCAR
   LVTOT        =      F    write LOCPOT, total local potential
   LVHAR        =      F    write LOCPOT, Hartree potential only
   LELF         =      F    write electronic localiz. function (ELF)
   LORBIT       =      0    0 simple, 1 ext, 2 COOP (PROOUT), +10 PAW based schemes


 Dipole corrections
   LMONO  =      F    monopole corrections only (constant potential shift)
   LDIPOL =      F    correct potential (dipole corrections)
   IDIPOL =      0    1-x, 2-y, 3-z, 4-all directions 
   EPSILON=  1.0000000 bulk dielectric constant

 Exchange correlation treatment:
   GGA     =    PE    GGA type
   LEXCH   =     8    internal setting for exchange type
   LIBXC   =     F    Libxc                    
   VOSKOWN =     0    Vosko Wilk Nusair interpolation
   LHFCALC =     F    Hartree Fock is set to
   LHFONE  =     F    Hartree Fock one center treatment
   AEXX    =    0.0000 exact exchange contribution

 Linear response parameters
   LEPSILON=     F    determine dielectric tensor
   LRPA    =     F    only Hartree local field effects (RPA)
   LNABLA  =     F    use nabla operator in PAW spheres
   LVEL    =     F    velocity operator in full k-point grid
   CSHIFT  =0.1000    complex shift for real part using Kramers Kronig
   OMEGAMAX=  -1.0    maximum frequency
   DEG_THRESHOLD= 0.2000000E-02 threshold for treating states as degnerate
   RTIME   =   -0.100 relaxation time in fs
  (WPLASMAI=    0.000 imaginary part of plasma frequency in eV, 0.658/RTIME)
   DFIELD  = 0.0000000 0.0000000 0.0000000 field for delta impulse in time
 
  Optional k-point grid parameters
   LKPOINTS_OPT  =     F    use optional k-point grid
   KPOINTS_OPT_MODE=     1    mode for optional k-point grid
 
 Orbital magnetization related:
   ORBITALMAG=     F  switch on orbital magnetization
   LCHIMAG   =     F  perturbation theory with respect to B field
   DQ        =  0.001000  dq finite difference perturbation B field
   LLRAUG    =     F  two centre corrections for induced B field
   LBONE     =     F  B-component reconstruction in AE one-centre
   LVGVCALC  =     T  calculate vGv susceptibility
   LVGVAPPL  =     F  apply vGv susceptibility instead of pGv for G=0

 Random number generation:
   RANDOM_GENERATOR = DEFAULT
   PCG_SEED         = not used


--------------------------------------------------------------------------------------------------------


 Static calculation
 charge density and potential will be updated during run
 spin polarized calculation
 Variant of blocked Davidson
 Davidson routine will perform the subspace rotation
 perform sub-space diagonalisation
    after iterative eigenvector-optimisation
 modified Broyden-mixing scheme, WC =      100.0
 initial mixing is a Kerker type mixing with AMIX =  0.4000 and BMIX =      1.0000
 Hartree-type preconditioning will be used
 using additional bands            5
 reciprocal scheme for non local part
 use partial core corrections
 calculate Harris-corrections to forces 
   (improved forces if not selfconsistent)
 use gradient corrections 
 use of overlap-Matrix (Vanderbilt PP)
 Gauss-broadening in eV      SIGMA  =   0.05


--------------------------------------------------------------------------------------------------------


  energy-cutoff  :      520.00
  volume of cell :     3442.80
      direct lattice vectors                 reciprocal lattice vectors
    15.000000000  0.000000000  0.000000000     0.066666667 -0.000000000  0.000000000
     0.000000000 15.100000000  0.000000000     0.000000000  0.066225166  0.000000000
     0.000000000  0.000000000 15.200000000    -0.000000000 -0.000000000  0.065789474

  length of vectors
    15.000000000 15.100000000 15.200000000     0.066666667  0.066225166  0.065789474


 
 k-points in units of 2pi/SCALE and weight: Automatic kpoint scheme                 
   0.00000000  0.00000000  0.00000000       1.000
 
 k-points in reciprocal lattice and weights: Automatic kpoint scheme                 
   0.00000000  0.00000000  0.00000000       1.000
 
 position of ions in fractional coordinates (direct lattice) 
   0.00000000  0.00000000  0.00000000
 
 position of ions in cartesian coordinates  (Angst):
   0.00000000  0.00000000  0.00000000
 


--------------------------------------------------------------------------------------------------------


 use parallel FFT for orbitals z direction half grid
 k-point   1 :   0.0000 0.0000 0.0000  plane waves:   46338

 maximum and minimum number of plane-waves per node :      1457     1434

 maximum number of plane-waves:     46338
 maximum index in each direction: 
   IXMAX=   27   IYMAX=   28   IZMAX=   28
   IXMIN=  -27   IYMIN=  -28   IZMIN=    0


 parallel 3D FFT for wavefunctions:
    minimum data exchange during FFTs selected (reduces bandwidth)
 parallel 3D FFT for charge:
    minimum data exchange during FFTs selected (reduces bandwidth)


 total amount of memory used by VASP MPI-rank0    58583. kBytes
=======================================================================

   base      :      30000. kBytes
   nonl-proj :        233. kBytes
   fftplans  :       8156. kBytes
   grid      :      19898. kBytes
   one-center:         15. kBytes
   wavefun   :        281. kBytes
 
     INWAV:  cpu time      0.0000: real time      0.0000
 Broyden mixing: mesh for mixing (old mesh)
   NGX = 55   NGY = 57   NGZ = 57
  (NGX  =224   NGY  =224   NGZ  =240)
  gives a total of 178695 points

 initial charge density was supplied:
 charge density of overlapping atoms calculated
 number of electron      14.0000000 magnetization       2.0000000
 keeping initial charge density in first step


--------------------------------------------------------------------------------------------------------


 Maximum index for augmentation-charges          727 (set IRDMAX)


--------------------------------------------------------------------------------------------------------


 First call to EWALD:  gamma=   0.117
 Maximum number of real-space cells 3x 3x 3
 Maximum number of reciprocal cells 3x 3x 3

    FEWALD:  cpu time      0.0011: real time      0.0011


--------------------------------------- Ionic step        1  -------------------------------------------




--------------------------------------- Iteration      1(   1)  ---------------------------------------


    POTLOK:  cpu time      0.3184: real time      0.3209
    SETDIJ:  cpu time      0.5518: real time      0.5544
     EDDAV:  cpu time      0.0933: real time      0.0945
       DOS:  cpu time      0.0004: real time      0.0004
    --------------------------------------------
      LOOP:  cpu time      0.9639: real time      0.9703

 eigenvalue-minimisations  :    64
 total energy-change (2. order) : 0.4298838E+02  (-0.4582218E+03)
 number of electron      14.0000000 magnetization       2.0000000
 augmentation part       14.0000000 magnetization       2.0000000

 Free energy of the ion-electron system (eV)
  ---------------------------------------------------
  alpha Z        PSCENC =         0.42549765
  Ewald energy   TEWEN  =      -265.15332961
  -Hartree energ DENC   =     -1644.21245046
  -exchange      EXHF   =         0.00000000
  -V(xc)+E(xc)   XCENC  =        71.36746891
  PAW double counting   =      1836.28763873    -2271.10193275
  entropy T*S    EENTRO =        -0.00000000
  eigenvalues    EBANDS =      -280.86190572
  atomic energy  EATOM  =      2596.23739575
  Solvation  Ediel_sol  =         0.00000000
  ---------------------------------------------------
  free energy    TOTEN  =        42.98838251 eV

  energy without entropy =       42.98838251  energy(sigma->0) =       42.98838251


--------------------------------------------------------------------------------------------------------




--------------------------------------- Iteration      1(   2)  ---------------------------------------


     EDDAV:  cpu time      0.0844: real time      0.0860
       DOS:  cpu time      0.0002: real time      0.0002
    --------------------------------------------
      LOOP:  cpu time      0.0845: real time      0.0861

 eigenvalue-minimisations  :    72
 total energy-change (2. order) :-0.3643389E+02  (-0.3315931E+02)
 number of electron      14.0000000 magnetization       2.0000000
 augmentation part       14.0000000 magnetization       2.0000000

 Free energy of the ion-electron system (eV)
  ---------------------------------------------------
  alpha Z        PSCENC =         0.42549765
  Ewald energy   TEWEN  =      -265.15332961
  -Hartree energ DENC   =     -1644.21245046
  -exchange      EXHF   =         0.00000000
  -V(xc)+E(xc)   XCENC  =        71.36746891
  PAW double counting   =      1836.28763873    -2271.10193275
  entropy T*S    EENTRO =        -0.00000008
  eigenvalues    EBANDS =      -317.29579447
  atomic energy  EATOM  =      2596.23739575
  Solvation  Ediel_sol  =         0.00000000
  ---------------------------------------------------
  free energy    TOTEN  =         6.55449368 eV

  energy without entropy =        6.55449376  energy(sigma->0) =        6.55449372


--------------------------------------------------------------------------------------------------------




--------------------------------------- Iteration      1(   3)  ---------------------------------------


     EDDAV:  cpu time      0.0853: real time      0.0863
       DOS:  cpu time      0.0002: real time      0.0002
    --------------------------------------------
      LOOP:  cpu time      0.0855: real time      0.0865

 eigenvalue-minimisations  :    72
 total energy-change (2. order) :-0.6060666E+01  (-0.6049983E+01)
 number of electron      14.0000000 magnetization       2.0000000
 augmentation part       14.0000000 magnetization       2.0000000

 Free energy of the ion-electron system (eV)
  ---------------------------------------------------
  alpha Z        PSCENC =         0.42549765
  Ewald energy   TEWEN  =      -265.15332961
  -Hartree energ DENC   =     -1644.21245046
  -exchange      EXHF   =         0.00000000
  -V(xc)+E(xc)   XCENC  =        71.36746891
  PAW double counting   =      1836.28763873    -2271.10193275
  entropy T*S    EENTRO =        -0.00000000
  eigenvalues    EBANDS =      -323.35646065
  atomic energy  EATOM  =      2596.23739575
  Solvation  Ediel_sol  =         0.00000000
  ---------------------------------------------------
  free energy    TOTEN  =         0.49382758 eV

  energy without entropy =        0.49382758  energy(sigma->0) =        0.49382758


--------------------------------------------------------------------------------------------------------




--------------------------------------- Iteration      1(   4)  ---------------------------------------


     EDDAV:  cpu time      0.0666: real time      0.0675
       DOS:  cpu time      0.0003: real time      0.0003
    --------------------------------------------
      LOOP:  cpu time      0.0669: real time      0.0678

 eigenvalue-minimisations  :    48
 total energy-change (2. order) :-0.3327694E+00  (-0.3029862E+00)
 number of electron      14.0000000 magnetization       2.0000000
 augmentation part       14.0000000 magnetization       2.0000000

 Free energy of the ion-electron system (eV)
  ---------------------------------------------------
  alpha Z        PSCENC =         0.42549765
  Ewald energy   TEWEN  =      -265.15332961
  -Hartree energ DENC   =     -1644.21245046
  -exchange      EXHF   =         0.00000000
  -V(xc)+E(xc)   XCENC  =        71.36746891
  PAW double counting   =      1836.28763873    -2271.10193275
  entropy T*S    EENTRO =        -0.03783375
  eigenvalues    EBANDS =      -323.65139634
  atomic energy  EATOM  =      2596.23739575
  Solvation  Ediel_sol  =         0.00000000
  ---------------------------------------------------
  free energy    TOTEN  =         0.16105814 eV

  energy without entropy =        0.19889189  energy(sigma->0) =        0.17997501


--------------------------------------------------------------------------------------------------------




--------------------------------------- Iteration      1(   5)  ---------------------------------------


     EDDAV:  cpu time      0.0719: real time      0.0730
       DOS:  cpu time      0.0004: real time      0.0004
    CHARGE:  cpu time      0.0275: real time      0.0277
    MIXING:  cpu time      0.0046: real time      0.0046
    --------------------------------------------
      LOOP:  cpu time      0.1043: real time      0.1057

 eigenvalue-minimisations  :    56
 total energy-change (2. order) :-0.1359375E-01  (-0.1285834E-01)
 number of electron      13.9999975 magnetization       2.0000000
 augmentation part        8.3795933 magnetization      -0.0979520

 Broyden mixing:
  rms(total) = 0.12599E+01    rms(broyden)= 0.12599E+01
  rms(prec ) = 0.12600E+01
  weight for this iteration     100.00

 Free energy of the ion-electron system (eV)
  ---------------------------------------------------
  alpha Z        PSCENC =         0.42549765
  Ewald energy   TEWEN  =      -265.15332961
  -Hartree energ DENC   =     -1644.21245046
  -exchange      EXHF   =         0.00000000
  -V(xc)+E(xc)   XCENC  =        71.36746891
  PAW double counting   =      1836.28763873    -2271.10193275
  entropy T*S    EENTRO =        -0.03856558
  eigenvalues    EBANDS =      -323.66425826
  atomic energy  EATOM  =      2596.23739575
  Solvation  Ediel_sol  =         0.00000000
  ---------------------------------------------------
  free energy    TOTEN  =         0.14746439 eV

  energy without entropy =        0.18602997  energy(sigma->0) =        0.16674718


--------------------------------------------------------------------------------------------------------




--------------------------------------- Iteration      1(   6)  ---------------------------------------


    POTLOK:  cpu time      0.3884: real time      0.3910
    SETDIJ:  cpu time      0.5505: real time      0.5531
     EDDAV:  cpu time      0.0677: real time      0.0685
       DOS:  cpu time      0.0004: real time      0.0004
    CHARGE:  cpu time      0.0254: real time      0.0256
    MIXING:  cpu time      0.0043: real time      0.0044
    --------------------------------------------
      LOOP:  cpu time      1.0367: real time      1.0430

 eigenvalue-minimisations  :    48
 total energy-change (2. order) :-0.5905678E+00  (-0.1179394E+00)
 number of electron      13.9999975 magnetization       2.0000000
 augmentation part        8.3717999 magnetization      -0.1230598

 Broyden mixing:
  rms(total) = 0.54039E+00    rms(broyden)= 0.54039E+00
  rms(prec ) = 0.54088E+00
  weight for this iteration     100.00

 eigenvalues of (default mixing * dielectric matrix)
  average eigenvalue GAMMA=   0.6996
  0.6996

 Free energy of the ion-electron system (eV)
  ---------------------------------------------------
  alpha Z        PSCENC =         0.42549765
  Ewald energy   TEWEN  =      -265.15332961
  -Hartree energ DENC   =     -1644.94923226
  -exchange      EXHF   =         0.00000000
  -V(xc)+E(xc)   XCENC  =        71.93863379
  PAW double counting   =      1835.85723320    -2271.04241235
  entropy T*S    EENTRO =        -0.03856501
  eigenvalues    EBANDS =      -323.71832460
  atomic energy  EATOM  =      2596.23739575
  Solvation  Ediel_sol  =         0.00000000
  ---------------------------------------------------
  free energy    TOTEN  =        -0.44310343 eV

  energy without entropy =       -0.40453841  energy(sigma->0) =       -0.42382092


--------------------------------------------------------------------------------------------------------




--------------------------------------- Iteration      1(   7)  ---------------------------------------


    POTLOK:  cpu time      0.3238: real time      0.3262
    SETDIJ:  cpu time      0.5497: real time      0.5524
     EDDAV:  cpu time      0.0849: real time      0.0858
       DOS:  cpu time      0.0004: real time      0.0004
    CHARGE:  cpu time      0.0262: real time      0.0266
    MIXING:  cpu time      0.0057: real time      0.0058
    --------------------------------------------
      LOOP:  cpu time      0.9907: real time      0.9971

 eigenvalue-minimisations  :    52
 total energy-change (2. order) :-0.2846571E+00  (-0.2337849E-01)
 number of electron      13.9999975 magnetization       2.0000000
 augmentation part        8.3762079 magnetization      -0.1027421

 Broyden mixing:
  rms(total) = 0.26543E-01    rms(broyden)= 0.26543E-01
  rms(prec ) = 0.27540E-01
  weight for this iteration     100.00

 eigenvalues of (default mixing * dielectric matrix)
  average eigenvalue GAMMA=   0.7584
  0.8254  0.6915

 Free energy of the ion-electron system (eV)
  ---------------------------------------------------
  alpha Z        PSCENC =         0.42549765
  Ewald energy   TEWEN  =      -265.15332961
  -Hartree energ DENC   =     -1646.07772519
  -exchange      EXHF   =         0.00000000
  -V(xc)+E(xc)   XCENC  =        71.50543357
  PAW double counting   =      1847.26824743    -2282.61610338
  entropy T*S    EENTRO =        -0.03856179
  eigenvalues    EBANDS =      -322.27861494
  atomic energy  EATOM  =      2596.23739575
  Solvation  Ediel_sol  =         0.00000000
  ---------------------------------------------------
  free energy    TOTEN  =        -0.72776049 eV

  energy without entropy =       -0.68919871  energy(sigma->0) =       -0.70847960


--------------------------------------------------------------------------------------------------------




--------------------------------------- Iteration      1(   8)  ---------------------------------------


    POTLOK:  cpu time      0.3780: real time      0.3809
    SETDIJ:  cpu time      0.5497: real time      0.5524
     EDDAV:  cpu time      0.0680: real time      0.0686
       DOS:  cpu time      0.0004: real time      0.0004
    CHARGE:  cpu time      0.0247: real time      0.0251
    MIXING:  cpu time      0.0047: real time      0.0048
    --------------------------------------------
      LOOP:  cpu time      1.0256: real time      1.0321

 eigenvalue-minimisations  :    48
 total energy-change (2. order) :-0.2642327E-01  (-0.1462541E-02)
 number of electron      13.9999975 magnetization       2.0000000
 augmentation part        8.3771190 magnetization      -0.1033844

 Broyden mixing:
  rms(total) = 0.11068E-01    rms(broyden)= 0.11068E-01
  rms(prec ) = 0.12177E-01
  weight for this iteration     100.00

 eigenvalues of (default mixing * dielectric matrix)
  average eigenvalue GAMMA=   0.8211
  1.0783  0.7271  0.6580

 Free energy of the ion-electron system (eV)
  ---------------------------------------------------
  alpha Z        PSCENC =         0.42549765
  Ewald energy   TEWEN  =      -265.15332961
  -Hartree energ DENC   =     -1646.45474708
  -exchange      EXHF   =         0.00000000
  -V(xc)+E(xc)   XCENC  =        71.48274662
  PAW double counting   =      1850.32363984    -2285.64159660
  entropy T*S    EENTRO =        -0.03853713
  eigenvalues    EBANDS =      -321.93525321
  atomic energy  EATOM  =      2596.23739575
  Solvation  Ediel_sol  =         0.00000000
  ---------------------------------------------------
  free energy    TOTEN  =        -0.75418376 eV

  energy without entropy =       -0.71564663  energy(sigma->0) =       -0.73491520


--------------------------------------------------------------------------------------------------------




--------------------------------------- Iteration      1(   9)  ---------------------------------------


    POTLOK:  cpu time      0.3538: real time      0.3565
    SETDIJ:  cpu time      0.5498: real time      0.5525
     EDDAV:  cpu time      0.0785: real time      0.0795
       DOS:  cpu time      0.0004: real time      0.0004
    CHARGE:  cpu time      0.0247: real time      0.0251
    MIXING:  cpu time      0.0045: real time      0.0045
    --------------------------------------------
      LOOP:  cpu time      1.0117: real time      1.0184

 eigenvalue-minimisations  :    64
 total energy-change (2. order) :-0.1170076E-01  (-0.3505544E-03)
 number of electron      13.9999975 magnetization       2.0000000
 augmentation part        8.3784864 magnetization      -0.1037711

 Broyden mixing:
  rms(total) = 0.15327E-01    rms(broyden)= 0.15327E-01
  rms(prec ) = 0.17815E-01
  weight for this iteration     100.00

 eigenvalues of (default mixing * dielectric matrix)
  average eigenvalue GAMMA=   0.6314
  1.0784  0.6580  0.7270  0.0621

 Free energy of the ion-electron system (eV)
  ---------------------------------------------------
  alpha Z        PSCENC =         0.42549765
  Ewald energy   TEWEN  =      -265.15332961
  -Hartree energ DENC   =     -1646.67588168
  -exchange      EXHF   =         0.00000000
  -V(xc)+E(xc)   XCENC  =        71.47623070
  PAW double counting   =      1852.74637625    -2288.00165868
  entropy T*S    EENTRO =        -0.03830115
  eigenvalues    EBANDS =      -321.78221376
  atomic energy  EATOM  =      2596.23739575
  Solvation  Ediel_sol  =         0.00000000
  ---------------------------------------------------
  free energy    TOTEN  =        -0.76588452 eV

  energy without entropy =       -0.72758337  energy(sigma->0) =       -0.74673395


--------------------------------------------------------------------------------------------------------




--------------------------------------- Iteration      1(  10)  ---------------------------------------


    POTLOK:  cpu time      0.3338: real time      0.3365
    SETDIJ:  cpu time      0.5497: real time      0.5523
     EDDAV:  cpu time      0.0705: real time      0.0712
       DOS:  cpu time      0.0004: real time      0.0004
    CHARGE:  cpu time      0.0232: real time      0.0235
    MIXING:  cpu time      0.0049: real time      0.0050
    --------------------------------------------
      LOOP:  cpu time      0.9825: real time      0.9889

 eigenvalue-minimisations  :    56
 total energy-change (2. order) : 0.2052029E-02  (-0.1696206E-04)
 number of electron      13.9999975 magnetization       2.0000000
 augmentation part        8.3786509 magnetization      -0.1039389

 Broyden mixing:
  rms(total) = 0.11795E-01    rms(broyden)= 0.11795E-01
  rms(prec ) = 0.13654E-01
  weight for this iteration     100.00

 eigenvalues of (default mixing * dielectric matrix)
  average eigenvalue GAMMA=   0.8161
  1.3717  0.8967  0.7034  0.6324  0.4762

 Free energy of the ion-electron system (eV)
  ---------------------------------------------------
  alpha Z        PSCENC =         0.42549765
  Ewald energy   TEWEN  =      -265.15332961
  -Hartree energ DENC   =     -1646.66942851
  -exchange      EXHF   =         0.00000000
  -V(xc)+E(xc)   XCENC  =        71.47818587
  PAW double counting   =      1852.61849519    -2287.87918806
  entropy T*S    EENTRO =        -0.03842250
  eigenvalues    EBANDS =      -321.78303827
  atomic energy  EATOM  =      2596.23739575
  Solvation  Ediel_sol  =         0.00000000
  ---------------------------------------------------
  free energy    TOTEN  =        -0.76383249 eV

  energy without entropy =       -0.72540999  energy(sigma->0) =       -0.74462124


--------------------------------------------------------------------------------------------------------




--------------------------------------- Iteration      1(  11)  ---------------------------------------


    POTLOK:  cpu time      0.4475: real time      0.4505
    SETDIJ:  cpu time      0.5498: real time      0.5524
     EDDAV:  cpu time      0.0673: real time      0.0680
       DOS:  cpu time      0.0004: real time      0.0004
    CHARGE:  cpu time      0.0249: real time      0.0253
    MIXING:  cpu time      0.0048: real time      0.0049
    --------------------------------------------
      LOOP:  cpu time      1.0948: real time      1.1015

 eigenvalue-minimisations  :    48
 total energy-change (2. order) :-0.1109142E-01  (-0.7998161E-04)
 number of electron      13.9999975 magnetization       2.0000000
 augmentation part        8.3792554 magnetization      -0.1040941

 Broyden mixing:
  rms(total) = 0.46376E-02    rms(broyden)= 0.46372E-02
  rms(prec ) = 0.54148E-02
  weight for this iteration     100.00

 eigenvalues of (default mixing * dielectric matrix)
  average eigenvalue GAMMA=   0.8186
  0.4932  1.4195  0.9617  0.7351  0.6731  0.6289

 Free energy of the ion-electron system (eV)
  ---------------------------------------------------
  alpha Z        PSCENC =         0.42549765
  Ewald energy   TEWEN  =      -265.15332961
  -Hartree energ DENC   =     -1646.69373674
  -exchange      EXHF   =         0.00000000
  -V(xc)+E(xc)   XCENC  =        71.46586816
  PAW double counting   =      1854.36556660    -2289.55425875
  entropy T*S    EENTRO =        -0.03855077
  eigenvalues    EBANDS =      -321.82937621
  atomic energy  EATOM  =      2596.23739575
  Solvation  Ediel_sol  =         0.00000000
  ---------------------------------------------------
  free energy    TOTEN  =        -0.77492391 eV

  energy without entropy =       -0.73637314  energy(sigma->0) =       -0.75564853


--------------------------------------------------------------------------------------------------------




--------------------------------------- Iteration      1(  12)  ---------------------------------------


    POTLOK:  cpu time      0.4425: real time      0.4455
    SETDIJ:  cpu time      0.5503: real time      0.5532
     EDDAV:  cpu time      0.0701: real time      0.0708
       DOS:  cpu time      0.0004: real time      0.0004
    CHARGE:  cpu time      0.0251: real time      0.0254
    MIXING:  cpu time      0.0051: real time      0.0051
    --------------------------------------------
      LOOP:  cpu time      1.0934: real time      1.1004

 eigenvalue-minimisations  :    52
 total energy-change (2. order) :-0.8772042E-02  (-0.1317913E-04)
 number of electron      13.9999975 magnetization       2.0000000
 augmentation part        8.3794373 magnetization      -0.1042622

 Broyden mixing:
  rms(total) = 0.82095E-02    rms(broyden)= 0.82094E-02
  rms(prec ) = 0.95885E-02
  weight for this iteration     100.00

 eigenvalues of (default mixing * dielectric matrix)
  average eigenvalue GAMMA=   0.7816
  1.4969  1.0373  0.7970  0.6933  0.6299  0.4824  0.3343

 Free energy of the ion-electron system (eV)
  ---------------------------------------------------
  alpha Z        PSCENC =         0.42549765
  Ewald energy   TEWEN  =      -265.15332961
  -Hartree energ DENC   =     -1646.72504192
  -exchange      EXHF   =         0.00000000
  -V(xc)+E(xc)   XCENC  =        71.45713232
  PAW double counting   =      1854.83946615    -2290.01137605
  entropy T*S    EENTRO =        -0.03849143
  eigenvalues    EBANDS =      -321.81494882
  atomic energy  EATOM  =      2596.23739575
  Solvation  Ediel_sol  =         0.00000000
  ---------------------------------------------------
  free energy    TOTEN  =        -0.78369595 eV

  energy without entropy =       -0.74520453  energy(sigma->0) =       -0.76445024


--------------------------------------------------------------------------------------------------------




--------------------------------------- Iteration      1(  13)  ---------------------------------------


    POTLOK:  cpu time      0.3583: real time      0.3609
    SETDIJ:  cpu time      0.5496: real time      0.5522
     EDDAV:  cpu time      0.0675: real time      0.0682
       DOS:  cpu time      0.0004: real time      0.0004
    CHARGE:  cpu time      0.0246: real time      0.0253
    MIXING:  cpu time      0.0053: real time      0.0053
    --------------------------------------------
      LOOP:  cpu time      1.0057: real time      1.0123

 eigenvalue-minimisations  :    48
 total energy-change (2. order) :-0.7504719E-03  (-0.3883246E-05)
 number of electron      13.9999975 magnetization       2.0000000
 augmentation part        8.3794868 magnetization      -0.1043095

 Broyden mixing:
  rms(total) = 0.34021E-02    rms(broyden)= 0.34019E-02
  rms(prec ) = 0.40367E-02
  weight for this iteration     100.00

 eigenvalues of (default mixing * dielectric matrix)
  average eigenvalue GAMMA=   0.8897
  2.0302  1.2617  0.8573  0.7076  0.6676  0.6326  0.4804  0.4804

 Free energy of the ion-electron system (eV)
  ---------------------------------------------------
  alpha Z        PSCENC =         0.42549765
  Ewald energy   TEWEN  =      -265.15332961
  -Hartree energ DENC   =     -1646.72546843
  -exchange      EXHF   =         0.00000000
  -V(xc)+E(xc)   XCENC  =        71.45595153
  PAW double counting   =      1855.01503889    -2290.17864294
  entropy T*S    EENTRO =        -0.03855768
  eigenvalues    EBANDS =      -321.82233160
  atomic energy  EATOM  =      2596.23739575
  Solvation  Ediel_sol  =         0.00000000
  ---------------------------------------------------
  free energy    TOTEN  =        -0.78444643 eV

  energy without entropy =       -0.74588874  energy(sigma->0) =       -0.76516758


--------------------------------------------------------------------------------------------------------




--------------------------------------- Iteration      1(  14)  ---------------------------------------


    POTLOK:  cpu time      0.3100: real time      0.3121
    SETDIJ:  cpu time      0.5498: real time      0.5524
     EDDAV:  cpu time      0.0692: real time      0.0700
       DOS:  cpu time      0.0004: real time      0.0004
    CHARGE:  cpu time      0.0248: real time      0.0251
    MIXING:  cpu time      0.0053: real time      0.0053
    --------------------------------------------
      LOOP:  cpu time      0.9595: real time      0.9653

 eigenvalue-minimisations  :    52
 total energy-change (2. order) :-0.6480978E-02  (-0.2223418E-04)
 number of electron      13.9999975 magnetization       2.0000000
 augmentation part        8.3796850 magnetization      -0.1044979

 Broyden mixing:
  rms(total) = 0.12815E-02    rms(broyden)= 0.12813E-02
  rms(prec ) = 0.17111E-02
  weight for this iteration     100.00

 eigenvalues of (default mixing * dielectric matrix)
  average eigenvalue GAMMA=   0.9863
  2.5385  1.5193  1.0569  0.8163  0.6952  0.6406  0.6406  0.4994  0.4700

 Free energy of the ion-electron system (eV)
  ---------------------------------------------------
  alpha Z        PSCENC =         0.42549765
  Ewald energy   TEWEN  =      -265.15332961
  -Hartree energ DENC   =     -1646.77384169
  -exchange      EXHF   =         0.00000000
  -V(xc)+E(xc)   XCENC  =        71.45089115
  PAW double counting   =      1855.39355794    -2290.55125881
  entropy T*S    EENTRO =        -0.03856514
  eigenvalues    EBANDS =      -321.78127467
  atomic energy  EATOM  =      2596.23739575
  Solvation  Ediel_sol  =         0.00000000
  ---------------------------------------------------
  free energy    TOTEN  =        -0.79092740 eV

  energy without entropy =       -0.75236227  energy(sigma->0) =       -0.77164483


--------------------------------------------------------------------------------------------------------




--------------------------------------- Iteration      1(  15)  ---------------------------------------


    POTLOK:  cpu time      0.4329: real time      0.4358
    SETDIJ:  cpu time      0.5494: real time      0.5521
     EDDAV:  cpu time      0.0666: real time      0.0674
       DOS:  cpu time      0.0004: real time      0.0004
    CHARGE:  cpu time      0.0256: real time      0.0259
    MIXING:  cpu time      0.0057: real time      0.0057
    --------------------------------------------
      LOOP:  cpu time      1.0805: real time      1.0873

 eigenvalue-minimisations  :    48
 total energy-change (2. order) :-0.4726713E-02  (-0.7467737E-05)
 number of electron      13.9999975 magnetization       2.0000000
 augmentation part        8.3797828 magnetization      -0.1046189

 Broyden mixing:
  rms(total) = 0.67626E-03    rms(broyden)= 0.67618E-03
  rms(prec ) = 0.10228E-02
  weight for this iteration     100.00

 eigenvalues of (default mixing * dielectric matrix)
  average eigenvalue GAMMA=   1.0067
  2.7652  1.6144  0.4998  0.4707  1.1354  0.8864  0.7448  0.7025  0.6427  0.6053

 Free energy of the ion-electron system (eV)
  ---------------------------------------------------
  alpha Z        PSCENC =         0.42549765
  Ewald energy   TEWEN  =      -265.15332961
  -Hartree energ DENC   =     -1646.82598231
  -exchange      EXHF   =         0.00000000
  -V(xc)+E(xc)   XCENC  =        71.44740084
  PAW double counting   =      1855.32008815    -2290.48598192
  entropy T*S    EENTRO =        -0.03856513
  eigenvalues    EBANDS =      -321.72217753
  atomic energy  EATOM  =      2596.23739575
  Solvation  Ediel_sol  =         0.00000000
  ---------------------------------------------------
  free energy    TOTEN  =        -0.79565412 eV

  energy without entropy =       -0.75708898  energy(sigma->0) =       -0.77637155


--------------------------------------------------------------------------------------------------------




--------------------------------------- Iteration      1(  16)  ---------------------------------------


    POTLOK:  cpu time      0.3738: real time      0.3762
    SETDIJ:  cpu time      0.5506: real time      0.5535
     EDDAV:  cpu time      0.0662: real time      0.0669
       DOS:  cpu time      0.0004: real time      0.0004
    CHARGE:  cpu time      0.0277: real time      0.0280
    MIXING:  cpu time      0.0055: real time      0.0056
    --------------------------------------------
      LOOP:  cpu time      1.0243: real time      1.0306

 eigenvalue-minimisations  :    48
 total energy-change (2. order) :-0.1717113E-02  (-0.8147653E-06)
 number of electron      13.9999975 magnetization       2.0000000
 augmentation part        8.3798028 magnetization      -0.1046408

 Broyden mixing:
  rms(total) = 0.14517E-02    rms(broyden)= 0.14517E-02
  rms(prec ) = 0.17451E-02
  weight for this iteration     100.00

 eigenvalues of (default mixing * dielectric matrix)
  average eigenvalue GAMMA=   0.9582
  2.8256  1.6348  1.1695  0.9129  0.7602  0.6990  0.6140  0.6417  0.4979  0.4723
  0.3120

 Free energy of the ion-electron system (eV)
  ---------------------------------------------------
  alpha Z        PSCENC =         0.42549765
  Ewald energy   TEWEN  =      -265.15332961
  -Hartree energ DENC   =     -1646.84865147
  -exchange      EXHF   =         0.00000000
  -V(xc)+E(xc)   XCENC  =        71.44588645
  PAW double counting   =      1855.17973186    -2290.34669216
  entropy T*S    EENTRO =        -0.03856442
  eigenvalues    EBANDS =      -321.69864527
  atomic energy  EATOM  =      2596.23739575
  Solvation  Ediel_sol  =         0.00000000
  ---------------------------------------------------
  free energy    TOTEN  =        -0.79737123 eV

  energy without entropy =       -0.75880680  energy(sigma->0) =       -0.77808902


--------------------------------------------------------------------------------------------------------




--------------------------------------- Iteration      1(  17)  ---------------------------------------


    POTLOK:  cpu time      0.3928: real time      0.3953
    SETDIJ:  cpu time      0.5514: real time      0.5541
     EDDAV:  cpu time      0.0671: real time      0.0679
       DOS:  cpu time      0.0004: real time      0.0004
    --------------------------------------------
      LOOP:  cpu time      1.0116: real time      1.0176

 eigenvalue-minimisations  :    48
 total energy-change (2. order) :-0.6105482E-05  (-0.6994441E-07)
 number of electron      13.9999975 magnetization       2.0000000
 augmentation part        8.3798028 magnetization      -0.1046408

 Free energy of the ion-electron system (eV)
  ---------------------------------------------------
  alpha Z        PSCENC =         0.42549765
  Ewald energy   TEWEN  =      -265.15332961
  -Hartree energ DENC   =     -1646.84850564
  -exchange      EXHF   =         0.00000000
  -V(xc)+E(xc)   XCENC  =        71.44588747
  PAW double counting   =      1855.17988619    -2290.34722037
  entropy T*S    EENTRO =        -0.03856517
  eigenvalues    EBANDS =      -321.69842362
  atomic energy  EATOM  =      2596.23739575
  Solvation  Ediel_sol  =         0.00000000
  ---------------------------------------------------
  free energy    TOTEN  =        -0.79737733 eV

  energy without entropy =       -0.75881217  energy(sigma->0) =       -0.77809475


--------------------------------------------------------------------------------------------------------




 average (electrostatic) potential at core
  the test charge radii are     0.9911
  (the norm of the test charge is              1.0000)
       1 -83.7159
 
 
 
 E-fermi :  -4.3384     XC(G=0):  -0.3350     alpha+bet : -0.0685

 Fermi energy:        -4.3383683201

 spin component 1

 k-point     1 :       0.0000    0.0000    0.0000
  band No.  band energies     occupation 
      1     -29.0895      1.00000
      2     -29.0892      1.00000
      3     -29.0888      1.00000
      4     -29.0877      1.00000
      5     -29.0877      1.00000
      6     -12.1678      1.00000
      7      -4.3538      0.66901
      8      -4.3535      0.66589
      9      -4.3534      0.66511
     10      -0.6068      0.00000
     11       0.2940      0.00000
     12       0.2964      0.00000
 Fermi energy:        -4.3383683201

 spin component 2

 k-point     1 :       0.0000    0.0000    0.0000
  band No.  band energies     occupation 
      1     -28.9387      1.00000
      2     -28.9384      1.00000
      3     -28.9377      1.00000
      4     -28.9363      1.00000
      5     -28.9363      1.00000
      6     -10.6932      1.00000
      7      -2.8249      0.00000
      8      -2.8191      0.00000
      9      -2.8164      0.00000
     10      -0.0637      0.00000
     11       0.5589      0.00000
     12       0.6463      0.00000


--------------------------------------------------------------------------------------------------------


 soft charge-density along one line, spin component           1
         0         1         2         3         4         5         6         7         8         9
 total charge-density along one line
 
 soft charge-density along one line, spin component           2
         0         1         2         3         4         5         6         7         8         9
 total charge-density along one line
 
 pseudopotential strength for first ion, spin component:           1
-30.812  -0.000   0.000   0.000   0.000   8.309   0.000  -0.000
 -0.000 -30.813   0.000  -0.000  -0.000   0.000   8.310  -0.000
  0.000   0.000 -30.813  -0.000   0.000  -0.000  -0.000   8.310
  0.000  -0.000  -0.000 -30.813  -0.000  -0.000   0.000   0.000
  0.000  -0.000   0.000  -0.000 -30.812  -0.000   0.000  -0.000
  8.309   0.000  -0.000  -0.000  -0.000   0.319  -0.000   0.000
  0.000   8.310  -0.000   0.000   0.000  -0.000   0.319   0.000
 -0.000  -0.000   8.310   0.000  -0.000   0.000   0.000   0.319
 -0.000   0.000   0.000   8.310   0.000   0.000  -0.000  -0.000
 -0.000   0.000  -0.000   0.000   8.309   0.000  -0.000   0.000
  0.000  -0.000   0.000   0.000  -0.000   0.000  -0.000   0.000
  0.000  -0.000   0.000   0.000  -0.000   0.000  -0.000   0.000
 -0.000   0.000  -0.000  -0.000  -0.000  -0.000   0.000   0.000
 -0.000   0.000  -0.000  -0.000  -0.000   0.000  -0.000   0.000
  0.000  -0.000   0.000  -0.000  -0.000  -0.000   0.000  -0.000
 -0.000  -0.000  -0.000  -0.000  -0.000  -0.000   0.000   0.000
 -0.000   0.000  -0.000  -0.000  -0.000   0.000  -0.000   0.000
  0.000  -0.000   0.000  -0.000  -0.000  -0.000   0.000  -0.000
 pseudopotential strength for first ion, spin component:           2
-30.741  -0.001   0.000   0.000  -0.000   8.309   0.000  -0.000
 -0.001 -30.742   0.000  -0.000  -0.000   0.000   8.309  -0.000
  0.000   0.000 -30.742  -0.000   0.000  -0.000  -0.000   8.310
  0.000  -0.000  -0.000 -30.742  -0.001  -0.000   0.000   0.000
 -0.000  -0.000   0.000  -0.001 -30.741   0.000   0.000  -0.000
  8.309   0.000  -0.000  -0.000   0.000   0.377  -0.000   0.000
  0.000   8.309  -0.000   0.000   0.000  -0.000   0.377   0.000
 -0.000  -0.000   8.310   0.000  -0.000   0.000   0.000   0.377
 -0.000   0.000   0.000   8.309   0.000   0.000  -0.000  -0.000
  0.000   0.000  -0.000   0.000   8.309  -0.000  -0.000  -0.000
 -0.000   0.000  -0.000  -0.000   0.000   0.000  -0.000   0.000
 -0.000   0.000  -0.000  -0.000   0.000   0.000  -0.000   0.000
 -0.000  -0.000  -0.000   0.000  -0.000   0.000   0.000   0.000
  0.000   0.000   0.000  -0.000  -0.000   0.000  -0.000  -0.000
  0.000   0.000   0.000  -0.000  -0.000  -0.000   0.000   0.000
 -0.000  -0.000  -0.000   0.000  -0.000   0.000   0.000   0.000
  0.000   0.000   0.000  -0.000  -0.000   0.000  -0.000  -0.000
  0.000   0.000   0.000  -0.000   0.000  -0.000   0.000   0.000
 total augmentation occupancy for first ion, spin component:           1
  2.000   0.000  -0.000  -0.000   0.000  -0.000   0.000  -0.000  -0.000   0.000  -0.000   0.000  -0.000  -0.000  -0.000  -0.000
  0.000   2.000  -0.000   0.000   0.000   0.000  -0.000  -0.000   0.000   0.000   0.000  -0.000   0.000  -0.000  -0.000  -0.000
 -0.000  -0.000   2.000   0.000  -0.000  -0.000  -0.000  -0.000   0.000  -0.000  -0.000   0.000   0.000  -0.000   0.000  -0.000
 -0.000   0.000   0.000   2.000   0.000  -0.000   0.000   0.000  -0.000   0.000  -0.000   0.000   0.000  -0.000   0.000  -0.000
  0.000   0.000  -0.000   0.000   2.000   0.000   0.000  -0.000   0.000  -0.000   0.000  -0.000   0.000  -0.000  -0.000  -0.000
 -0.000   0.000  -0.000  -0.000   0.000   0.000  -0.000   0.000   0.000   0.000   0.000   0.000  -0.000  -0.000   0.000   0.000
  0.000  -0.000  -0.000   0.000   0.000  -0.000   0.000   0.000  -0.000  -0.000  -0.000  -0.000   0.000  -0.000   0.000  -0.000
 -0.000  -0.000  -0.000   0.000  -0.000   0.000   0.000   0.000  -0.000  -0.000   0.000   0.000   0.000   0.000   0.000  -0.000
 -0.000   0.000   0.000  -0.000   0.000   0.000  -0.000  -0.000   0.000  -0.000   0.000   0.000   0.000  -0.000   0.000  -0.000
  0.000   0.000  -0.000   0.000  -0.000   0.000  -0.000  -0.000  -0.000   0.000   0.000  -0.000   0.000  -0.000  -0.000  -0.000
 -0.000   0.000  -0.000  -0.000   0.000   0.000  -0.000   0.000   0.000   0.000   1.981  -0.021  -0.000   0.000  -0.000   0.000
  0.000  -0.000   0.000   0.000  -0.000   0.000  -0.000   0.000   0.000  -0.000  -0.021   0.047   0.000  -0.000   0.000  -0.000
 -0.000   0.000   0.000   0.000   0.000  -0.000   0.000   0.000   0.000   0.000  -0.000   0.000   0.751   0.000   0.001  -0.023
 -0.000  -0.000  -0.000  -0.000  -0.000  -0.000  -0.000   0.000  -0.000  -0.000   0.000  -0.000   0.000   0.754  -0.002  -0.000
 -0.000  -0.000   0.000   0.000  -0.000   0.000   0.000   0.000   0.000  -0.000  -0.000   0.000   0.001  -0.002   0.757  -0.000
 -0.000  -0.000  -0.000  -0.000  -0.000   0.000  -0.000  -0.000  -0.000  -0.000   0.000  -0.000  -0.023  -0.000  -0.000   0.001
  0.000   0.000   0.000   0.000   0.000   0.000   0.000  -0.000  -0.000   0.000  -0.000  -0.000  -0.000  -0.023   0.000   0.000
  0.000   0.000  -0.000  -0.000   0.000   0.000   0.000   0.000  -0.000   0.000   0.000  -0.000  -0.000   0.000  -0.024   0.000
 total augmentation occupancy for first ion, spin component:           2
  0.007  -0.000   0.000   0.000   0.000   0.012  -0.000   0.000   0.000   0.000  -0.000   0.000   0.000  -0.000  -0.000  -0.000
 -0.000   0.007   0.000  -0.000  -0.000  -0.000   0.012   0.000  -0.000  -0.000   0.000  -0.000   0.000  -0.000  -0.000  -0.000
  0.000   0.000   0.007  -0.000  -0.000   0.000   0.000   0.012  -0.000  -0.000  -0.000   0.000   0.000   0.000  -0.000  -0.000
  0.000  -0.000  -0.000   0.007  -0.000   0.000  -0.000  -0.000   0.012  -0.000  -0.000   0.000   0.000   0.000  -0.000  -0.000
  0.000  -0.000  -0.000  -0.000   0.007   0.000  -0.000  -0.000  -0.000   0.012   0.000  -0.000  -0.000  -0.000  -0.000   0.000
  0.012  -0.000   0.000   0.000   0.000  -0.000   0.000  -0.000  -0.000   0.000  -0.000  -0.000  -0.000  -0.000   0.000   0.000
 -0.000   0.012   0.000  -0.000  -0.000   0.000  -0.000  -0.000   0.000   0.000   0.000   0.000   0.000  -0.000   0.000  -0.000
  0.000   0.000   0.012  -0.000  -0.000  -0.000  -0.000  -0.000   0.000  -0.000  -0.000  -0.000   0.000   0.000   0.000  -0.000
  0.000  -0.000  -0.000   0.012  -0.000  -0.000   0.000   0.000  -0.000   0.000  -0.000  -0.000   0.000  -0.000   0.000  -0.000
  0.000  -0.000  -0.000  -0.000   0.012   0.000   0.000  -0.000   0.000  -0.000   0.000  -0.000   0.000  -0.000  -0.000  -0.000
 -0.000   0.000  -0.000  -0.000   0.000  -0.000   0.000  -0.000  -0.000   0.000   0.707  -0.291  -0.000  -0.000  -0.000   0.000
  0.000  -0.000   0.000   0.000  -0.000  -0.000   0.000  -0.000  -0.000  -0.000  -0.291  -0.011   0.000  -0.000   0.000  -0.000
  0.000   0.000   0.000   0.000  -0.000  -0.000   0.000   0.000   0.000   0.000  -0.000   0.000   0.751   0.000   0.001  -0.023
 -0.000  -0.000   0.000   0.000  -0.000  -0.000  -0.000   0.000  -0.000  -0.000  -0.000  -0.000   0.000   0.754  -0.002  -0.000
 -0.000  -0.000  -0.000  -0.000  -0.000   0.000   0.000   0.000   0.000  -0.000  -0.000   0.000   0.001  -0.002   0.757  -0.000
 -0.000  -0.000  -0.000  -0.000   0.000   0.000  -0.000  -0.000  -0.000  -0.000   0.000  -0.000  -0.023  -0.000  -0.000   0.001
  0.000   0.000  -0.000  -0.000   0.000   0.000   0.000  -0.000   0.000   0.000   0.000   0.000  -0.000  -0.023   0.000   0.000
  0.000   0.000   0.000   0.000   0.000   0.000   0.000  -0.000  -0.000   0.000   0.000  -0.000  -0.000   0.000  -0.024   0.000


------------------------ aborting loop because EDIFF is reached ----------------------------------------


    CHARGE:  cpu time      0.0255: real time      0.0258
    FORLOC:  cpu time      0.0020: real time      0.0021
    FORNL :  cpu time      0.0059: real time      0.0060
    STRESS:  cpu time      0.0200: real time      0.0202
    FORCOR:  cpu time      0.3020: real time      0.3043
    FORHAR:  cpu time      0.0320: real time      0.0322
    MIXING:  cpu time      0.0059: real time      0.0059
    OFIELD:  cpu time      0.0001: real time      0.0000

  FORCE on cell =-STRESS in cart. coord.  units (eV):
  Direction    XX          YY          ZZ          XY          YZ          ZX
  --------------------------------------------------------------------------------------
  Alpha Z     0.42550     0.42550     0.42550
  Ewald     -86.60060   -88.38602   -90.16671     0.00000     0.00000     0.00000
  Hartree   550.80433   548.93266   547.22635     0.02502    -0.00071    -0.03921
  E(xc)     -81.43704   -81.43666   -81.43894    -0.00036     0.00055    -0.00104
  Local    -605.39827  -601.67381  -598.21767    -0.04039     0.00183     0.06132
  n-local    27.85648    27.83209    27.84699     0.00613    -0.00136    -0.00605
  augment   124.42932   124.43786   124.41571    -0.00430     0.00539    -0.00877
  Kinetic    69.90998    69.88334    69.88819     0.00506     0.00146    -0.01277
  Fock        0.00000     0.00000     0.00000     0.00000     0.00000     0.00000
  -------------------------------------------------------------------------------------
  Total      -0.01032     0.01498    -0.02058    -0.00883     0.00717    -0.00652
  in kB      -0.00480     0.00697    -0.00958    -0.00411     0.00334    -0.00303
  external pressure =       -0.00 kB  Pullay stress =        0.00 kB


 VOLUME and BASIS-vectors are now :
 -----------------------------------------------------------------------------
  energy-cutoff  :      520.00
  volume of cell :     3442.80
      direct lattice vectors                 reciprocal lattice vectors
    15.000000000  0.000000000  0.000000000     0.066666667 -0.000000000  0.000000000
     0.000000000 15.100000000  0.000000000     0.000000000  0.066225166  0.000000000
     0.000000000  0.000000000 15.200000000    -0.000000000 -0.000000000  0.065789474

  length of vectors
    15.000000000 15.100000000 15.200000000     0.066666667  0.066225166  0.065789474


 FORCES acting on ions
    electron-ion (+dipol)            ewald-force                    non-local-force                 convergence-correction
 -----------------------------------------------------------------------------------------------
   -.295E-04 -.329E-04 0.522E-04   0.373E-16 0.363E-16 -.117E-16   -.937E-05 -.160E-04 0.292E-04   0.409E-04 0.494E-04 -.847E-04
 -----------------------------------------------------------------------------------------------
   -.295E-04 -.329E-04 0.522E-04   0.373E-16 0.363E-16 -.117E-16   -.937E-05 -.160E-04 0.292E-04   0.409E-04 0.494E-04 -.847E-04
 
 
 POSITION                                       TOTAL-FORCE (eV/Angst)
 -----------------------------------------------------------------------------------
      0.00000      0.00000      0.00000         0.000002      0.000001     -0.000003
 -----------------------------------------------------------------------------------
    total drift:                                0.000002      0.000001     -0.000003


--------------------------------------------------------------------------------------------------------



  FREE ENERGIE OF THE ION-ELECTRON SYSTEM (eV)
  ---------------------------------------------------
  free  energy   TOTEN  =        -0.79737733 eV

  energy  without entropy=       -0.75881217  energy(sigma->0) =       -0.77809475
 


--------------------------------------------------------------------------------------------------------


    POTLOK:  cpu time      0.8669: real time      0.8719


--------------------------------------------------------------------------------------------------------


     LOOP+:  cpu time     15.4579: real time     15.5604
    4ORBIT:  cpu time      0.0000: real time      0.0000

 total amount of memory used by VASP MPI-rank0    58583. kBytes
=======================================================================

   base      :      30000. kBytes
   nonl-proj :        233. kBytes
   fftplans  :       8156. kBytes
   grid      :      19898. kBytes
   one-center:         15. kBytes
   wavefun   :        281. kBytes
 
  
  
 General timing and accounting informations for this job:
 ========================================================
  
                  Total CPU time used (sec):       16.936
                            User time (sec):       15.506
                          System time (sec):        1.430
                         Elapsed time (sec):       17.593
  
                   Maximum memory used (kb):      447760.
                   Average memory used (kb):          N/A
  
                          Minor page faults:        93553
                          Major page faults:           50
                 Voluntary context switches:         1264
