 vasp.6.4.2 20Jul23 (build Aug 07 2024 12:45:50) gamma-only                     
  
 executed on             LinuxIFC date 2026.09.30  12:18:50
 running   64 mpi-ranks, on    1 nodes
 distrk:  each k-point on   64 cores,    1 groups
 distr:  one band on NCORE=  32 cores,    2 groups


--------------------------------------------------------------------------------------------------------


 INCAR:
   ALGO = Normal
   EDIFF = 1e-05
   EFERMI = Midgap
   ENCUT = 520.0
   GGA = Pe
   GGA_COMPAT = False
   IBRION = -1
   ISMEAR = 0
   ISPIN = 2
   ISYM = 0
   LAECHG = False
   LASPH = True
   LCHARG = False
   LMAXMIX = 6
   LMIXTAU = True
   LREAL = False
   LWAVE = False
   MAGMOM = 1*1.0
   NCORE = 32
   NELM = 400
   NSW = 0
   PREC = Accurate
   SIGMA = 0.05
   SYSTEM = Cu_atom_ispin2

 POTCAR:    PAW_PBE Cu_pv 06Sep2000               
 -----------------------------------------------------------------------------
|                                                                             |
|           W    W    AA    RRRRR   N    N  II  N    N   GGGG   !!!           |
|           W    W   A  A   R    R  NN   N  II  NN   N  G    G  !!!           |
|           W    W  A    A  R    R  N N  N  II  N N  N  G       !!!           |
|           W WW W  AAAAAA  RRRRR   N  N N  II  N  N N  G  GGG   !            |
|           WW  WW  A    A  R   R   N   NN  II  N   NN  G    G                |
|           W    W  A    A  R    R  N    N  II  N    N   GGGG   !!!           |
|                                                                             |
|     For optimal performance we recommend to set                             |
|       NCORE = 2 up to number-of-cores-per-socket                            |
|     NCORE specifies how many cores store one orbital (NPAR=cpu/NCORE).      |
|     This setting can greatly improve the performance of VASP for DFT.       |
|     The default, NCORE=1 might be grossly inefficient on modern             |
|     multi-core architectures or massively parallel machines. Do your        |
|     own testing! More info at https://www.vasp.at/wiki/index.php/NCORE      |
|     Unfortunately you need to use the default for GW and RPA                |
|     calculations (for HF NCORE is supported but not extensively tested      |
|     yet).                                                                   |
|                                                                             |
 -----------------------------------------------------------------------------

 POTCAR:    PAW_PBE Cu_pv 06Sep2000               
   SHA256 =  cb7b504e2ea725fe1f25c85a9ac77d4012ce94cd394135b722c4e25ec297f1cb Cu_pv/POTCAR          
   COPYR  = (c) Copyright 06Sep2000 Georg Kresse                                                    
   COPYR  = This file is part of the software VASP. Any use, copying, and all other rights are regul
   COPYR  = If you do not have a valid VASP license, you may not use, copy or distribute this file. 
   VRHFIN =Cu: d10 p1                                                                               
   LEXCH  = PE                                                                                      
   EATOM  =  4120.1201 eV,  302.8203 Ry                                                             
                                                                                                    
   TITEL  = PAW_PBE Cu_pv 06Sep2000                                                                 
   LULTRA =        F    use ultrasoft PP ?                                                          
   IUNSCR =        1    unscreen: 0-lin 1-nonlin 2-no                                               
   RPACOR =    1.500    partial core radius                                                         
   POMASS =   63.546; ZVAL   =   17.000    mass and valenz                                          
   RCORE  =    2.000    outmost cutoff radius                                                       
   RWIGS  =    2.000; RWIGS  =    1.058    wigner-seitz radius (au A)                               
   ENMAX  =  368.648; ENMIN  =  276.486 eV                                                          
   RCLOC  =    1.304    cutoff for local pot                                                        
   LCOR   =        T    correct aug charges                                                         
   LPAW   =        T    paw PP                                                                      
   EAUG   =  758.233                                                                                
   DEXC   =    0.000                                                                                
   RMAX   =    2.046    core radius for proj-oper                                                   
   RAUG   =    1.300    factor for augmentation sphere                                              
   RDEP   =    2.025    radius for radial grids                                                     
   RDEPT  =    1.558    core radius for aug-charge                                                  
                                                                                                    
   Atomic configuration                                                                             
    8 entries                                                                                       
     n  l   j            E        occ.                                                              
     1  0  0.50     -8850.2467   2.0000                                                             
     2  0  0.50     -1062.3498   2.0000                                                             
     2  1  1.50      -916.8226   6.0000                                                             
     3  0  0.50      -114.6929   2.0000                                                             
     3  1  1.50       -72.1325   6.0000                                                             
     3  2  2.50        -5.0394  10.0000                                                             
     4  0  0.50        -4.6097   1.0000                                                             
     4  3  2.50        -1.3606   0.0000                                                             
   Description                                                                                      
     l       E           TYP  RCUT    TYP  RCUT                                                     
     1    -72.1324777     23  1.700                                                                 
     1     -1.3605826     23  1.700                                                                 
     2     -5.0393776     23  2.000                                                                 
     2     -6.3999602     23  2.000                                                                 
     0     -4.6097062     23  1.800                                                                 
     0     14.1620818     23  1.800                                                                 
  local pseudopotential read in
  partial core-charges read in
  partial kinetic energy density read in
  atomic valenz-charges read in
  non local Contribution for L=           1  read in
    real space projection operators read in
  non local Contribution for L=           1  read in
    real space projection operators read in
  non local Contribution for L=           2  read in
    real space projection operators read in
  non local Contribution for L=           2  read in
    real space projection operators read in
  non local Contribution for L=           0  read in
    real space projection operators read in
  non local Contribution for L=           0  read in
    real space projection operators read in
    PAW grid and wavefunctions read in
 
   number of l-projection  operators is LMAX  =           6
   number of lm-projection operators is LMMAX =          18
 
  PAW_PBE Cu_pv 06Sep2000               :
 energy of atom  1       EATOM=-4120.1201
 kinetic energy error for atom=    0.0541 (will be added to EATOM!!)
 
 
 POSCAR: Cu1
  positions in direct lattice
  No initial velocities read in
 exchange correlation table for  LEXCH =        8
   RHO(1)=    0.500       N(1)  =     2000
   RHO(2)=  100.500       N(2)  =     4000
 


--------------------------------------------------------------------------------------------------------


 ion  position               nearest neighbor table
   1  0.000  0.000  0.000-
 

IMPORTANT INFORMATION: All symmetrisations will be switched off!
NOSYMM: (Re-)initialisation of all symmetry stuff for point group C_1.


----------------------------------------------------------------------------------------

                                     Primitive cell                                     

  volume of cell :    3442.8000

  direct lattice vectors                    reciprocal lattice vectors
    15.000000000  0.000000000  0.000000000     0.066666667 -0.000000000  0.000000000
     0.000000000 15.100000000  0.000000000     0.000000000  0.066225166  0.000000000
     0.000000000  0.000000000 15.200000000    -0.000000000 -0.000000000  0.065789474

  length of vectors
    15.000000000 15.100000000 15.200000000     0.066666667  0.066225166  0.065789474

  position of ions in fractional coordinates (direct lattice)
     0.000000000  0.000000000  0.000000000

  ion indices of the primitive-cell ions
   primitive index   ion index
                 1           1

----------------------------------------------------------------------------------------

 
 
 KPOINTS: Automatic kpoint scheme                 

Automatic generation of k-mesh.
 Grid dimensions read from file:
 generate k-points for:    1    1    1

 Generating k-lattice:

  Cartesian coordinates                     Fractional coordinates (reciprocal lattice)
     0.066666667 -0.000000000  0.000000000     1.000000000 -0.000000000  0.000000000
     0.000000000  0.066225166  0.000000000     0.000000000  1.000000000  0.000000000
    -0.000000000 -0.000000000  0.065789474     0.000000000 -0.000000000  1.000000000

  Length of vectors
     0.066666667  0.066225166  0.065789474

  Shift w.r.t. Gamma in fractional coordinates (k-lattice)
     0.000000000  0.000000000  0.000000000

 
 Subroutine IBZKPT returns following result:
 ===========================================
 
 Found      1 irreducible k-points:
 
 Following reciprocal coordinates:
            Coordinates               Weight
  0.000000  0.000000  0.000000      1.000000
 
 Following cartesian coordinates:
            Coordinates               Weight
  0.000000  0.000000  0.000000      1.000000
 


--------------------------------------------------------------------------------------------------------




 Dimension of arrays:
   k-points           NKPTS =      1   k-points in BZ     NKDIM =      1   number of bands    NBANDS=     14
   number of dos      NEDOS =    301   number of ions     NIONS =      1
   non local maximal  LDIM  =      6   non local SUM 2l+1 LMDIM =     18
   total plane-waves  NPLWV = ******
   max r-space proj   IRMAX =      1   max aug-charges    IRDMAX=   8825
   dimension x,y,z NGX =   112 NGY =  112 NGZ =  120
   dimension x,y,z NGXF=   224 NGYF=  224 NGZF=  240
   support grid    NGXF=   224 NGYF=  224 NGZF=  240
   ions per type =               1
   NGX,Y,Z   is equivalent  to a cutoff of  12.41, 12.33, 13.12 a.u.
   NGXF,Y,Z  is equivalent  to a cutoff of  24.83, 24.66, 26.25 a.u.

 SYSTEM =  Cu_atom_ispin2                          
 POSCAR =  Cu1                                     

 Startparameter for this run:
   NWRITE =      2    write-flag & timer
   PREC   = accura    normal or accurate (medium, high low for compatibility)
   ISTART =      0    job   : 0-new  1-cont  2-samecut
   ICHARG =      2    charge: 1-file 2-atom 10-const
   ISPIN  =      2    spin polarized calculation?
   LNONCOLLINEAR =      F non collinear calculations
   LSORBIT =      F    spin-orbit coupling
   INIWAV =      1    electr: 0-lowe 1-rand  2-diag
   LASPH  =      T    aspherical Exc in radial PAW
 Electronic Relaxation 1
   ENCUT  =  520.0 eV  38.22 Ry    6.18 a.u.  27.89 28.08 28.26*2*pi/ulx,y,z
   ENINI  =  520.0     initial cutoff
   ENAUG  =  758.2 eV  augmentation charge cutoff
   NELM   =    400;   NELMIN=  2; NELMDL= -5     # of ELM steps 
   EDIFF  = 0.1E-04   stopping-criterion for ELM
   LREAL  =      F    real-space projection
   NLSPLINE    = F    spline interpolate recip. space projectors
   LCOMPAT=      F    compatible to vasp.4.4
   GGA_COMPAT  = F    GGA compatible to vasp.4.4-vasp.4.6
   LMAXPAW     = -100 max onsite density
   LMAXMIX     =    6 max onsite mixed and CHGCAR
   VOSKOWN=      0    Vosko Wilk Nusair interpolation
   ROPT   =    0.00000
 Ionic relaxation
   EDIFFG = 0.1E-03   stopping-criterion for IOM
   NSW    =      0    number of steps for IOM
   NBLOCK =      1;   KBLOCK =      1    inner block; outer block 
   IBRION =     -1    ionic relax: 0-MD 1-quasi-New 2-CG
   NFREE  =      0    steps in history (QN), initial steepest desc. (CG)
   ISIF   =      2    stress and relaxation
   IWAVPR =     10    prediction:  0-non 1-charg 2-wave 3-comb
   ISYM   =      0    0-nonsym 1-usesym 2-fastsym
   LCORR  =      T    Harris-Foulkes like correction to forces

   POTIM  = 0.5000    time-step for ionic-motion
   TEIN   =    0.0    initial temperature
   TEBEG  =    0.0;   TEEND  =   0.0 temperature during run
   SMASS  =  -3.00    Nose mass-parameter (am)
   estimated Nose-frequenzy (Omega)   =  0.10E-29 period in steps = 0.13E+47 mass=  -0.514E-26a.u.
   SCALEE = 1.0000    scale energy and forces
   NPACO  =    256;   APACO  = 10.0  distance and # of slots for P.C.
   PSTRESS=    0.0 pullay stress

  Mass of Ions in am
   POMASS =  63.55
  Ionic Valenz
   ZVAL   =  17.00
  Atomic Wigner-Seitz radii
   RWIGS  =  -1.00
  virtual crystal weights 
   VCA    =   1.00
   NELECT =      17.0000    total number of electrons
   NUPDOWN=      -1.0000    fix difference up-down

 DOS related values:
   EMIN   =  10.00;   EMAX   =-10.00  energy-range for DOS
   EFERMI =   0.00;   METHOD = MIDGAP      
   ISMEAR =     0;   SIGMA  =   0.05  broadening in eV -4-tet -1-fermi 0-gaus

 Electronic relaxation 2 (details)
   IALGO  =     38    algorithm
   LDIAG  =      T    sub-space diagonalisation (order eigenvalues)
   LSUBROT=      F    optimize rotation matrix (better conditioning)
   TURBO    =      0    0=normal 1=particle mesh
   IRESTART =      0    0=no restart 2=restart with 2 vectors
   NREBOOT  =      0    no. of reboots
   NMIN     =      0    reboot dimension
   EREF     =   0.00    reference energy to select bands
   IMIX   =      4    mixing-type and parameters
     AMIX     =   0.40;   BMIX     =  1.00
     AMIX_MAG =   1.60;   BMIX_MAG =  1.00
     AMIN     =   0.10
     WC   =   100.;   INIMIX=   1;  MIXPRE=   1;  MAXMIX= -45

 Intra band minimization:
   WEIMIN = 0.0000     energy-eigenvalue tresh-hold
   EBREAK =  0.18E-06  absolut break condition
   DEPER  =   0.30     relativ break condition  

   TIME   =   0.40     timestep for ELM

  volume/ion in A,a.u.               =    3442.80     23233.16
  Fermi-wavevector in a.u.,A,eV,Ry     =   0.278775  0.526808  1.057384  0.077716
  Thomas-Fermi vector in A             =   1.125851
 
 Write flags
   LWAVE        =      F    write WAVECAR
   LDOWNSAMPLE  =      F    k-point downsampling of WAVECAR
   LCHARG       =      F    write CHGCAR
   LVTOT        =      F    write LOCPOT, total local potential
   LVHAR        =      F    write LOCPOT, Hartree potential only
   LELF         =      F    write electronic localiz. function (ELF)
   LORBIT       =      0    0 simple, 1 ext, 2 COOP (PROOUT), +10 PAW based schemes


 Dipole corrections
   LMONO  =      F    monopole corrections only (constant potential shift)
   LDIPOL =      F    correct potential (dipole corrections)
   IDIPOL =      0    1-x, 2-y, 3-z, 4-all directions 
   EPSILON=  1.0000000 bulk dielectric constant

 Exchange correlation treatment:
   GGA     =    PE    GGA type
   LEXCH   =     8    internal setting for exchange type
   LIBXC   =     F    Libxc                    
   VOSKOWN =     0    Vosko Wilk Nusair interpolation
   LHFCALC =     F    Hartree Fock is set to
   LHFONE  =     F    Hartree Fock one center treatment
   AEXX    =    0.0000 exact exchange contribution

 Linear response parameters
   LEPSILON=     F    determine dielectric tensor
   LRPA    =     F    only Hartree local field effects (RPA)
   LNABLA  =     F    use nabla operator in PAW spheres
   LVEL    =     F    velocity operator in full k-point grid
   CSHIFT  =0.1000    complex shift for real part using Kramers Kronig
   OMEGAMAX=  -1.0    maximum frequency
   DEG_THRESHOLD= 0.2000000E-02 threshold for treating states as degnerate
   RTIME   =   -0.100 relaxation time in fs
  (WPLASMAI=    0.000 imaginary part of plasma frequency in eV, 0.658/RTIME)
   DFIELD  = 0.0000000 0.0000000 0.0000000 field for delta impulse in time
 
  Optional k-point grid parameters
   LKPOINTS_OPT  =     F    use optional k-point grid
   KPOINTS_OPT_MODE=     1    mode for optional k-point grid
 
 Orbital magnetization related:
   ORBITALMAG=     F  switch on orbital magnetization
   LCHIMAG   =     F  perturbation theory with respect to B field
   DQ        =  0.001000  dq finite difference perturbation B field
   LLRAUG    =     F  two centre corrections for induced B field
   LBONE     =     F  B-component reconstruction in AE one-centre
   LVGVCALC  =     T  calculate vGv susceptibility
   LVGVAPPL  =     F  apply vGv susceptibility instead of pGv for G=0

 Random number generation:
   RANDOM_GENERATOR = DEFAULT
   PCG_SEED         = not used


--------------------------------------------------------------------------------------------------------


 Static calculation
 charge density and potential will be updated during run
 spin polarized calculation
 Variant of blocked Davidson
 Davidson routine will perform the subspace rotation
 perform sub-space diagonalisation
    after iterative eigenvector-optimisation
 modified Broyden-mixing scheme, WC =      100.0
 initial mixing is a Kerker type mixing with AMIX =  0.4000 and BMIX =      1.0000
 Hartree-type preconditioning will be used
 using additional bands            5
 reciprocal scheme for non local part
 use partial core corrections
 calculate Harris-corrections to forces 
   (improved forces if not selfconsistent)
 use gradient corrections 
 use of overlap-Matrix (Vanderbilt PP)
 Gauss-broadening in eV      SIGMA  =   0.05


--------------------------------------------------------------------------------------------------------


  energy-cutoff  :      520.00
  volume of cell :     3442.80
      direct lattice vectors                 reciprocal lattice vectors
    15.000000000  0.000000000  0.000000000     0.066666667 -0.000000000  0.000000000
     0.000000000 15.100000000  0.000000000     0.000000000  0.066225166  0.000000000
     0.000000000  0.000000000 15.200000000    -0.000000000 -0.000000000  0.065789474

  length of vectors
    15.000000000 15.100000000 15.200000000     0.066666667  0.066225166  0.065789474


 
 k-points in units of 2pi/SCALE and weight: Automatic kpoint scheme                 
   0.00000000  0.00000000  0.00000000       1.000
 
 k-points in reciprocal lattice and weights: Automatic kpoint scheme                 
   0.00000000  0.00000000  0.00000000       1.000
 
 position of ions in fractional coordinates (direct lattice) 
   0.00000000  0.00000000  0.00000000
 
 position of ions in cartesian coordinates  (Angst):
   0.00000000  0.00000000  0.00000000
 


--------------------------------------------------------------------------------------------------------


 use parallel FFT for orbitals z direction half grid
 k-point   1 :   0.0000 0.0000 0.0000  plane waves:   46338

 maximum and minimum number of plane-waves per node :      1457     1434

 maximum number of plane-waves:     46338
 maximum index in each direction: 
   IXMAX=   27   IYMAX=   28   IZMAX=   28
   IXMIN=  -27   IYMIN=  -28   IZMIN=    0


 parallel 3D FFT for wavefunctions:
    minimum data exchange during FFTs selected (reduces bandwidth)
 parallel 3D FFT for charge:
    minimum data exchange during FFTs selected (reduces bandwidth)


 total amount of memory used by VASP MPI-rank0    58630. kBytes
=======================================================================

   base      :      30000. kBytes
   nonl-proj :        233. kBytes
   fftplans  :       8156. kBytes
   grid      :      19898. kBytes
   one-center:         15. kBytes
   wavefun   :        328. kBytes
 
     INWAV:  cpu time      0.0000: real time      0.0000
 Broyden mixing: mesh for mixing (old mesh)
   NGX = 55   NGY = 57   NGZ = 57
  (NGX  =224   NGY  =224   NGZ  =240)
  gives a total of 178695 points

 initial charge density was supplied:
 charge density of overlapping atoms calculated
 number of electron      17.0000000 magnetization       1.0000000
 keeping initial charge density in first step


--------------------------------------------------------------------------------------------------------


 Maximum index for augmentation-charges          499 (set IRDMAX)


--------------------------------------------------------------------------------------------------------


 First call to EWALD:  gamma=   0.117
 Maximum number of real-space cells 3x 3x 3
 Maximum number of reciprocal cells 3x 3x 3

    FEWALD:  cpu time      0.0010: real time      0.0010


--------------------------------------- Ionic step        1  -------------------------------------------




--------------------------------------- Iteration      1(   1)  ---------------------------------------


    POTLOK:  cpu time      0.3208: real time      0.3233
    SETDIJ:  cpu time      0.4477: real time      0.4498
     EDDAV:  cpu time      0.0969: real time      0.0981
       DOS:  cpu time      0.0005: real time      0.0005
    --------------------------------------------
      LOOP:  cpu time      0.8658: real time      0.8716

 eigenvalue-minimisations  :    68
 total energy-change (2. order) : 0.2655425E+03  (-0.3195605E+03)
 number of electron      17.0000000 magnetization       1.0000000
 augmentation part       17.0000000 magnetization       1.0000000

 Free energy of the ion-electron system (eV)
  ---------------------------------------------------
  alpha Z        PSCENC =         0.52559311
  Ewald energy   TEWEN  =      -390.96587886
  -Hartree energ DENC   =     -3199.41177825
  -exchange      EXHF   =         0.00000000
  -V(xc)+E(xc)   XCENC  =       106.32332961
  PAW double counting   =      3479.78086900    -3629.22437404
  entropy T*S    EENTRO =        -0.00124052
  eigenvalues    EBANDS =      -221.55002853
  atomic energy  EATOM  =      4120.06598957
  Solvation  Ediel_sol  =         0.00000000
  ---------------------------------------------------
  free energy    TOTEN  =       265.54248110 eV

  energy without entropy =      265.54372162  energy(sigma->0) =      265.54310136


--------------------------------------------------------------------------------------------------------




--------------------------------------- Iteration      1(   2)  ---------------------------------------


     EDDAV:  cpu time      0.0804: real time      0.0819
       DOS:  cpu time      0.0004: real time      0.0004
    --------------------------------------------
      LOOP:  cpu time      0.0808: real time      0.0823

 eigenvalue-minimisations  :    64
 total energy-change (2. order) :-0.2245860E+03  (-0.2225256E+03)
 number of electron      17.0000000 magnetization       1.0000000
 augmentation part       17.0000000 magnetization       1.0000000

 Free energy of the ion-electron system (eV)
  ---------------------------------------------------
  alpha Z        PSCENC =         0.52559311
  Ewald energy   TEWEN  =      -390.96587886
  -Hartree energ DENC   =     -3199.41177825
  -exchange      EXHF   =         0.00000000
  -V(xc)+E(xc)   XCENC  =       106.32332961
  PAW double counting   =      3479.78086900    -3629.22437404
  entropy T*S    EENTRO =        -0.00471614
  eigenvalues    EBANDS =      -446.13252173
  atomic energy  EATOM  =      4120.06598957
  Solvation  Ediel_sol  =         0.00000000
  ---------------------------------------------------
  free energy    TOTEN  =        40.95651228 eV

  energy without entropy =       40.96122842  energy(sigma->0) =       40.95887035


--------------------------------------------------------------------------------------------------------




--------------------------------------- Iteration      1(   3)  ---------------------------------------


     EDDAV:  cpu time      0.1141: real time      0.1154
       DOS:  cpu time      0.0002: real time      0.0002
    --------------------------------------------
      LOOP:  cpu time      0.1142: real time      0.1156

 eigenvalue-minimisations  :   112
 total energy-change (2. order) :-0.3528657E+02  (-0.3145368E+02)
 number of electron      17.0000000 magnetization       1.0000000
 augmentation part       17.0000000 magnetization       1.0000000

 Free energy of the ion-electron system (eV)
  ---------------------------------------------------
  alpha Z        PSCENC =         0.52559311
  Ewald energy   TEWEN  =      -390.96587886
  -Hartree energ DENC   =     -3199.41177825
  -exchange      EXHF   =         0.00000000
  -V(xc)+E(xc)   XCENC  =       106.32332961
  PAW double counting   =      3479.78086900    -3629.22437404
  entropy T*S    EENTRO =        -0.00000000
  eigenvalues    EBANDS =      -481.42380733
  atomic energy  EATOM  =      4120.06598957
  Solvation  Ediel_sol  =         0.00000000
  ---------------------------------------------------
  free energy    TOTEN  =         5.66994282 eV

  energy without entropy =        5.66994282  energy(sigma->0) =        5.66994282


--------------------------------------------------------------------------------------------------------




--------------------------------------- Iteration      1(   4)  ---------------------------------------


     EDDAV:  cpu time      0.0835: real time      0.0844
       DOS:  cpu time      0.0003: real time      0.0003
    --------------------------------------------
      LOOP:  cpu time      0.0838: real time      0.0848

 eigenvalue-minimisations  :    70
 total energy-change (2. order) :-0.5374797E+01  (-0.5362681E+01)
 number of electron      17.0000000 magnetization       1.0000000
 augmentation part       17.0000000 magnetization       1.0000000

 Free energy of the ion-electron system (eV)
  ---------------------------------------------------
  alpha Z        PSCENC =         0.52559311
  Ewald energy   TEWEN  =      -390.96587886
  -Hartree energ DENC   =     -3199.41177825
  -exchange      EXHF   =         0.00000000
  -V(xc)+E(xc)   XCENC  =       106.32332961
  PAW double counting   =      3479.78086900    -3629.22437404
  entropy T*S    EENTRO =        -0.00016608
  eigenvalues    EBANDS =      -486.79843842
  atomic energy  EATOM  =      4120.06598957
  Solvation  Ediel_sol  =         0.00000000
  ---------------------------------------------------
  free energy    TOTEN  =         0.29514565 eV

  energy without entropy =        0.29531173  energy(sigma->0) =        0.29522869


--------------------------------------------------------------------------------------------------------




--------------------------------------- Iteration      1(   5)  ---------------------------------------


     EDDAV:  cpu time      0.0721: real time      0.0731
       DOS:  cpu time      0.0004: real time      0.0004
    CHARGE:  cpu time      0.0292: real time      0.0296
    MIXING:  cpu time      0.0037: real time      0.0037
    --------------------------------------------
      LOOP:  cpu time      0.1053: real time      0.1068

 eigenvalue-minimisations  :    56
 total energy-change (2. order) :-0.1900348E+00  (-0.9479482E-01)
 number of electron      17.0000057 magnetization       0.9999999
 augmentation part       10.8249494 magnetization       0.1993549

 Broyden mixing:
  rms(total) = 0.64727E+00    rms(broyden)= 0.64722E+00
  rms(prec ) = 0.65413E+00
  weight for this iteration     100.00

 Free energy of the ion-electron system (eV)
  ---------------------------------------------------
  alpha Z        PSCENC =         0.52559311
  Ewald energy   TEWEN  =      -390.96587886
  -Hartree energ DENC   =     -3199.41177825
  -exchange      EXHF   =         0.00000000
  -V(xc)+E(xc)   XCENC  =       106.32332961
  PAW double counting   =      3479.78086900    -3629.22437404
  entropy T*S    EENTRO =        -0.02612229
  eigenvalues    EBANDS =      -486.96251706
  atomic energy  EATOM  =      4120.06598957
  Solvation  Ediel_sol  =         0.00000000
  ---------------------------------------------------
  free energy    TOTEN  =         0.10511081 eV

  energy without entropy =        0.13123309  energy(sigma->0) =        0.11817195


--------------------------------------------------------------------------------------------------------




--------------------------------------- Iteration      1(   6)  ---------------------------------------


    POTLOK:  cpu time      0.3212: real time      0.3236
    SETDIJ:  cpu time      0.4468: real time      0.4489
     EDDAV:  cpu time      0.0748: real time      0.0756
       DOS:  cpu time      0.0002: real time      0.0002
    CHARGE:  cpu time      0.0242: real time      0.0246
    MIXING:  cpu time      0.0039: real time      0.0039
    --------------------------------------------
      LOOP:  cpu time      0.8712: real time      0.8768

 eigenvalue-minimisations  :    56
 total energy-change (2. order) :-0.3983153E+00  (-0.1595269E+00)
 number of electron      17.0000058 magnetization       0.9999999
 augmentation part       11.1128400 magnetization      -0.0698040

 Broyden mixing:
  rms(total) = 0.37408E+00    rms(broyden)= 0.37406E+00
  rms(prec ) = 0.39456E+00
  weight for this iteration     100.00

 eigenvalues of (default mixing * dielectric matrix)
  average eigenvalue GAMMA=   0.8613
  0.8613

 Free energy of the ion-electron system (eV)
  ---------------------------------------------------
  alpha Z        PSCENC =         0.52559311
  Ewald energy   TEWEN  =      -390.96587886
  -Hartree energ DENC   =     -3183.41329190
  -exchange      EXHF   =         0.00000000
  -V(xc)+E(xc)   XCENC  =       105.91487829
  PAW double counting   =      3460.27337077    -3609.21110826
  entropy T*S    EENTRO =        -0.00000000
  eigenvalues    EBANDS =      -503.48275720
  atomic energy  EATOM  =      4120.06598957
  Solvation  Ediel_sol  =         0.00000000
  ---------------------------------------------------
  free energy    TOTEN  =        -0.29320448 eV

  energy without entropy =       -0.29320448  energy(sigma->0) =       -0.29320448


--------------------------------------------------------------------------------------------------------




--------------------------------------- Iteration      1(   7)  ---------------------------------------


    POTLOK:  cpu time      0.3113: real time      0.3134
    SETDIJ:  cpu time      0.4462: real time      0.4483
     EDDAV:  cpu time      0.0821: real time      0.0829
       DOS:  cpu time      0.0002: real time      0.0002
    CHARGE:  cpu time      0.0254: real time      0.0257
    MIXING:  cpu time      0.0039: real time      0.0039
    --------------------------------------------
      LOOP:  cpu time      0.8691: real time      0.8745

 eigenvalue-minimisations  :    68
 total energy-change (2. order) : 0.8304907E-01  (-0.9327645E-01)
 number of electron      17.0000057 magnetization       0.9999999
 augmentation part       10.9604816 magnetization      -0.0827164

 Broyden mixing:
  rms(total) = 0.68397E-01    rms(broyden)= 0.68383E-01
  rms(prec ) = 0.68856E-01
  weight for this iteration     100.00

 eigenvalues of (default mixing * dielectric matrix)
  average eigenvalue GAMMA=   0.8295
  1.0691  0.5899

 Free energy of the ion-electron system (eV)
  ---------------------------------------------------
  alpha Z        PSCENC =         0.52559311
  Ewald energy   TEWEN  =      -390.96587886
  -Hartree energ DENC   =     -3198.24092187
  -exchange      EXHF   =         0.00000000
  -V(xc)+E(xc)   XCENC  =       106.37551806
  PAW double counting   =      3488.01658991    -3638.83690252
  entropy T*S    EENTRO =        -0.00000000
  eigenvalues    EBANDS =      -487.15014281
  atomic energy  EATOM  =      4120.06598957
  Solvation  Ediel_sol  =         0.00000000
  ---------------------------------------------------
  free energy    TOTEN  =        -0.21015541 eV

  energy without entropy =       -0.21015541  energy(sigma->0) =       -0.21015541


--------------------------------------------------------------------------------------------------------




--------------------------------------- Iteration      1(   8)  ---------------------------------------


    POTLOK:  cpu time      0.3235: real time      0.3258
    SETDIJ:  cpu time      0.4462: real time      0.4483
     EDDAV:  cpu time      0.0811: real time      0.0819
       DOS:  cpu time      0.0002: real time      0.0002
    CHARGE:  cpu time      0.0244: real time      0.0247
    MIXING:  cpu time      0.0040: real time      0.0040
    --------------------------------------------
      LOOP:  cpu time      0.8794: real time      0.8849

 eigenvalue-minimisations  :    64
 total energy-change (2. order) :-0.5270398E-02  (-0.1846425E-02)
 number of electron      17.0000057 magnetization       0.9999999
 augmentation part       10.9564468 magnetization      -0.0841168

 Broyden mixing:
  rms(total) = 0.42600E-01    rms(broyden)= 0.42599E-01
  rms(prec ) = 0.42955E-01
  weight for this iteration     100.00

 eigenvalues of (default mixing * dielectric matrix)
  average eigenvalue GAMMA=   0.7769
  1.0176  0.6566  0.6566

 Free energy of the ion-electron system (eV)
  ---------------------------------------------------
  alpha Z        PSCENC =         0.52559311
  Ewald energy   TEWEN  =      -390.96587886
  -Hartree energ DENC   =     -3199.61876715
  -exchange      EXHF   =         0.00000000
  -V(xc)+E(xc)   XCENC  =       106.39806838
  PAW double counting   =      3484.36348042    -3634.83230667
  entropy T*S    EENTRO =        -0.00000000
  eigenvalues    EBANDS =      -486.15160462
  atomic energy  EATOM  =      4120.06598957
  Solvation  Ediel_sol  =         0.00000000
  ---------------------------------------------------
  free energy    TOTEN  =        -0.21542581 eV

  energy without entropy =       -0.21542581  energy(sigma->0) =       -0.21542581


--------------------------------------------------------------------------------------------------------




--------------------------------------- Iteration      1(   9)  ---------------------------------------


    POTLOK:  cpu time      0.3186: real time      0.3208
    SETDIJ:  cpu time      0.4462: real time      0.4483
     EDDAV:  cpu time      0.0735: real time      0.0743
       DOS:  cpu time      0.0002: real time      0.0002
    CHARGE:  cpu time      0.0244: real time      0.0247
    MIXING:  cpu time      0.0042: real time      0.0043
    --------------------------------------------
      LOOP:  cpu time      0.8671: real time      0.8725

 eigenvalue-minimisations  :    56
 total energy-change (2. order) :-0.2450600E-02  (-0.2436621E-03)
 number of electron      17.0000057 magnetization       1.0000000
 augmentation part       10.9629308 magnetization      -0.0827400

 Broyden mixing:
  rms(total) = 0.22549E-01    rms(broyden)= 0.22549E-01
  rms(prec ) = 0.22743E-01
  weight for this iteration     100.00

 eigenvalues of (default mixing * dielectric matrix)
  average eigenvalue GAMMA=   1.0547
  1.7943  1.0590  0.6237  0.7417

 Free energy of the ion-electron system (eV)
  ---------------------------------------------------
  alpha Z        PSCENC =         0.52559311
  Ewald energy   TEWEN  =      -390.96587886
  -Hartree energ DENC   =     -3199.39162559
  -exchange      EXHF   =         0.00000000
  -V(xc)+E(xc)   XCENC  =       106.37749320
  PAW double counting   =      3480.94354615    -3631.08592324
  entropy T*S    EENTRO =        -0.00000000
  eigenvalues    EBANDS =      -486.68707075
  atomic energy  EATOM  =      4120.06598957
  Solvation  Ediel_sol  =         0.00000000
  ---------------------------------------------------
  free energy    TOTEN  =        -0.21787641 eV

  energy without entropy =       -0.21787641  energy(sigma->0) =       -0.21787641


--------------------------------------------------------------------------------------------------------




--------------------------------------- Iteration      1(  10)  ---------------------------------------


    POTLOK:  cpu time      0.3211: real time      0.3234
    SETDIJ:  cpu time      0.4470: real time      0.4491
     EDDAV:  cpu time      0.0784: real time      0.0792
       DOS:  cpu time      0.0002: real time      0.0002
    CHARGE:  cpu time      0.0246: real time      0.0249
    MIXING:  cpu time      0.0046: real time      0.0046
    --------------------------------------------
      LOOP:  cpu time      0.8758: real time      0.8814

 eigenvalue-minimisations  :    62
 total energy-change (2. order) :-0.1059005E-02  (-0.1402760E-03)
 number of electron      17.0000057 magnetization       1.0000000
 augmentation part       10.9646394 magnetization      -0.0806351

 Broyden mixing:
  rms(total) = 0.27966E-02    rms(broyden)= 0.27963E-02
  rms(prec ) = 0.30730E-02
  weight for this iteration     100.00

 eigenvalues of (default mixing * dielectric matrix)
  average eigenvalue GAMMA=   1.1046
  2.1840  1.0754  0.9168  0.7240  0.6228

 Free energy of the ion-electron system (eV)
  ---------------------------------------------------
  alpha Z        PSCENC =         0.52559311
  Ewald energy   TEWEN  =      -390.96587886
  -Hartree energ DENC   =     -3200.04153917
  -exchange      EXHF   =         0.00000000
  -V(xc)+E(xc)   XCENC  =       106.38427781
  PAW double counting   =      3475.62057288    -3625.34184717
  entropy T*S    EENTRO =        -0.00000000
  eigenvalues    EBANDS =      -486.46610358
  atomic energy  EATOM  =      4120.06598957
  Solvation  Ediel_sol  =         0.00000000
  ---------------------------------------------------
  free energy    TOTEN  =        -0.21893541 eV

  energy without entropy =       -0.21893541  energy(sigma->0) =       -0.21893541


--------------------------------------------------------------------------------------------------------




--------------------------------------- Iteration      1(  11)  ---------------------------------------


    POTLOK:  cpu time      0.3211: real time      0.3232
    SETDIJ:  cpu time      0.4464: real time      0.4486
     EDDAV:  cpu time      0.0821: real time      0.0830
       DOS:  cpu time      0.0002: real time      0.0002
    CHARGE:  cpu time      0.0252: real time      0.0255
    MIXING:  cpu time      0.0044: real time      0.0045
    --------------------------------------------
      LOOP:  cpu time      0.8794: real time      0.8850

 eigenvalue-minimisations  :    68
 total energy-change (2. order) :-0.8620665E-02  (-0.8751818E-04)
 number of electron      17.0000057 magnetization       1.0000000
 augmentation part       10.9634143 magnetization      -0.0805295

 Broyden mixing:
  rms(total) = 0.16196E-02    rms(broyden)= 0.16196E-02
  rms(prec ) = 0.17118E-02
  weight for this iteration     100.00

 eigenvalues of (default mixing * dielectric matrix)
  average eigenvalue GAMMA=   1.0499
  2.2620  1.0689  1.0689  0.7014  0.6305  0.5676

 Free energy of the ion-electron system (eV)
  ---------------------------------------------------
  alpha Z        PSCENC =         0.52559311
  Ewald energy   TEWEN  =      -390.96587886
  -Hartree energ DENC   =     -3200.24351481
  -exchange      EXHF   =         0.00000000
  -V(xc)+E(xc)   XCENC  =       106.38241916
  PAW double counting   =      3474.37865601    -3624.06483717
  entropy T*S    EENTRO =        -0.00000000
  eigenvalues    EBANDS =      -486.30598309
  atomic energy  EATOM  =      4120.06598957
  Solvation  Ediel_sol  =         0.00000000
  ---------------------------------------------------
  free energy    TOTEN  =        -0.22755608 eV

  energy without entropy =       -0.22755608  energy(sigma->0) =       -0.22755608


--------------------------------------------------------------------------------------------------------




--------------------------------------- Iteration      1(  12)  ---------------------------------------


    POTLOK:  cpu time      0.3162: real time      0.3185
    SETDIJ:  cpu time      0.4466: real time      0.4486
     EDDAV:  cpu time      0.0742: real time      0.0750
       DOS:  cpu time      0.0002: real time      0.0002
    CHARGE:  cpu time      0.0246: real time      0.0250
    MIXING:  cpu time      0.0046: real time      0.0047
    --------------------------------------------
      LOOP:  cpu time      0.8664: real time      0.8720

 eigenvalue-minimisations  :    54
 total energy-change (2. order) :-0.2141135E-02  (-0.3231690E-05)
 number of electron      17.0000057 magnetization       1.0000000
 augmentation part       10.9631935 magnetization      -0.0804050

 Broyden mixing:
  rms(total) = 0.95314E-03    rms(broyden)= 0.95313E-03
  rms(prec ) = 0.10958E-02
  weight for this iteration     100.00

 eigenvalues of (default mixing * dielectric matrix)
  average eigenvalue GAMMA=   1.0539
  2.1366  1.3544  0.9344  0.9344  0.7864  0.6154  0.6154

 Free energy of the ion-electron system (eV)
  ---------------------------------------------------
  alpha Z        PSCENC =         0.52559311
  Ewald energy   TEWEN  =      -390.96587886
  -Hartree energ DENC   =     -3200.24577292
  -exchange      EXHF   =         0.00000000
  -V(xc)+E(xc)   XCENC  =       106.38045920
  PAW double counting   =      3473.46358730    -3623.15110499
  entropy T*S    EENTRO =        -0.00000000
  eigenvalues    EBANDS =      -486.30256963
  atomic energy  EATOM  =      4120.06598957
  Solvation  Ediel_sol  =         0.00000000
  ---------------------------------------------------
  free energy    TOTEN  =        -0.22969721 eV

  energy without entropy =       -0.22969721  energy(sigma->0) =       -0.22969721


--------------------------------------------------------------------------------------------------------




--------------------------------------- Iteration      1(  13)  ---------------------------------------


    POTLOK:  cpu time      0.3119: real time      0.3142
    SETDIJ:  cpu time      0.4464: real time      0.4484
     EDDAV:  cpu time      0.0640: real time      0.0647
       DOS:  cpu time      0.0002: real time      0.0002
    CHARGE:  cpu time      0.0260: real time      0.0264
    MIXING:  cpu time      0.0046: real time      0.0047
    --------------------------------------------
      LOOP:  cpu time      0.8531: real time      0.8586

 eigenvalue-minimisations  :    40
 total energy-change (2. order) :-0.2022156E-02  (-0.1574963E-05)
 number of electron      17.0000057 magnetization       1.0000000
 augmentation part       10.9637054 magnetization      -0.0803573

 Broyden mixing:
  rms(total) = 0.70170E-03    rms(broyden)= 0.70167E-03
  rms(prec ) = 0.81122E-03
  weight for this iteration     100.00

 eigenvalues of (default mixing * dielectric matrix)
  average eigenvalue GAMMA=   1.1220
  2.0777  2.0777  1.0709  1.0709  0.7285  0.7285  0.6110  0.6110

 Free energy of the ion-electron system (eV)
  ---------------------------------------------------
  alpha Z        PSCENC =         0.52559311
  Ewald energy   TEWEN  =      -390.96587886
  -Hartree energ DENC   =     -3200.19393978
  -exchange      EXHF   =         0.00000000
  -V(xc)+E(xc)   XCENC  =       106.37660484
  PAW double counting   =      3472.14712567    -3621.83751670
  entropy T*S    EENTRO =        -0.00000000
  eigenvalues    EBANDS =      -486.34969723
  atomic energy  EATOM  =      4120.06598957
  Solvation  Ediel_sol  =         0.00000000
  ---------------------------------------------------
  free energy    TOTEN  =        -0.23171937 eV

  energy without entropy =       -0.23171937  energy(sigma->0) =       -0.23171937


--------------------------------------------------------------------------------------------------------




--------------------------------------- Iteration      1(  14)  ---------------------------------------


    POTLOK:  cpu time      0.4227: real time      0.4253
    SETDIJ:  cpu time      0.4468: real time      0.4488
     EDDAV:  cpu time      0.0681: real time      0.0687
       DOS:  cpu time      0.0002: real time      0.0002
    CHARGE:  cpu time      0.0244: real time      0.0247
    MIXING:  cpu time      0.0050: real time      0.0050
    --------------------------------------------
      LOOP:  cpu time      0.9671: real time      0.9728

 eigenvalue-minimisations  :    48
 total energy-change (2. order) :-0.1205613E-02  (-0.3310002E-05)
 number of electron      17.0000057 magnetization       1.0000000
 augmentation part       10.9635682 magnetization      -0.0802803

 Broyden mixing:
  rms(total) = 0.31375E-03    rms(broyden)= 0.31375E-03
  rms(prec ) = 0.41987E-03
  weight for this iteration     100.00

 eigenvalues of (default mixing * dielectric matrix)
  average eigenvalue GAMMA=   1.1801
  2.5396  2.3192  1.2429  0.9787  0.8986  0.8359  0.6037  0.6011  0.6011

 Free energy of the ion-electron system (eV)
  ---------------------------------------------------
  alpha Z        PSCENC =         0.52559311
  Ewald energy   TEWEN  =      -390.96587886
  -Hartree energ DENC   =     -3200.21684418
  -exchange      EXHF   =         0.00000000
  -V(xc)+E(xc)   XCENC  =       106.37581598
  PAW double counting   =      3470.99575606    -3620.68971524
  entropy T*S    EENTRO =        -0.00000000
  eigenvalues    EBANDS =      -486.32364143
  atomic energy  EATOM  =      4120.06598957
  Solvation  Ediel_sol  =         0.00000000
  ---------------------------------------------------
  free energy    TOTEN  =        -0.23292498 eV

  energy without entropy =       -0.23292498  energy(sigma->0) =       -0.23292498


--------------------------------------------------------------------------------------------------------




--------------------------------------- Iteration      1(  15)  ---------------------------------------


    POTLOK:  cpu time      0.3188: real time      0.3212
    SETDIJ:  cpu time      0.4463: real time      0.4484
     EDDAV:  cpu time      0.0678: real time      0.0685
       DOS:  cpu time      0.0002: real time      0.0002
    CHARGE:  cpu time      0.0240: real time      0.0243
    MIXING:  cpu time      0.0052: real time      0.0052
    --------------------------------------------
      LOOP:  cpu time      0.8623: real time      0.8678

 eigenvalue-minimisations  :    46
 total energy-change (2. order) :-0.2412130E-03  (-0.5831657E-06)
 number of electron      17.0000057 magnetization       1.0000000
 augmentation part       10.9634159 magnetization      -0.0800970

 Broyden mixing:
  rms(total) = 0.40100E-03    rms(broyden)= 0.40099E-03
  rms(prec ) = 0.45623E-03
  weight for this iteration     100.00

 eigenvalues of (default mixing * dielectric matrix)
  average eigenvalue GAMMA=   1.1888
  2.4579  2.4579  1.3284  1.3284  0.9052  0.9052  0.7438  0.5837  0.5886  0.5886

 Free energy of the ion-electron system (eV)
  ---------------------------------------------------
  alpha Z        PSCENC =         0.52559311
  Ewald energy   TEWEN  =      -390.96587886
  -Hartree energ DENC   =     -3200.24491156
  -exchange      EXHF   =         0.00000000
  -V(xc)+E(xc)   XCENC  =       106.37609905
  PAW double counting   =      3470.76750954    -3620.45849024
  entropy T*S    EENTRO =        -0.00000000
  eigenvalues    EBANDS =      -486.29907680
  atomic energy  EATOM  =      4120.06598957
  Solvation  Ediel_sol  =         0.00000000
  ---------------------------------------------------
  free energy    TOTEN  =        -0.23316620 eV

  energy without entropy =       -0.23316620  energy(sigma->0) =       -0.23316620


--------------------------------------------------------------------------------------------------------




--------------------------------------- Iteration      1(  16)  ---------------------------------------


    POTLOK:  cpu time      0.3259: real time      0.3282
    SETDIJ:  cpu time      0.4467: real time      0.4488
     EDDAV:  cpu time      0.0617: real time      0.0623
       DOS:  cpu time      0.0002: real time      0.0002
    CHARGE:  cpu time      0.0241: real time      0.0244
    MIXING:  cpu time      0.0053: real time      0.0053
    --------------------------------------------
      LOOP:  cpu time      0.8639: real time      0.8693

 eigenvalue-minimisations  :    40
 total energy-change (2. order) :-0.1420509E-03  (-0.5570368E-06)
 number of electron      17.0000057 magnetization       1.0000000
 augmentation part       10.9636802 magnetization      -0.0800542

 Broyden mixing:
  rms(total) = 0.82228E-03    rms(broyden)= 0.82228E-03
  rms(prec ) = 0.85141E-03
  weight for this iteration     100.00

 eigenvalues of (default mixing * dielectric matrix)
  average eigenvalue GAMMA=   1.2059
  2.8643  1.9386  1.9386  1.2188  1.2188  0.8224  0.8224  0.7095  0.5854  0.5854
  0.5606

 Free energy of the ion-electron system (eV)
  ---------------------------------------------------
  alpha Z        PSCENC =         0.52559311
  Ewald energy   TEWEN  =      -390.96587886
  -Hartree energ DENC   =     -3200.24086666
  -exchange      EXHF   =         0.00000000
  -V(xc)+E(xc)   XCENC  =       106.37527788
  PAW double counting   =      3470.99390663    -3620.68227959
  entropy T*S    EENTRO =        -0.00000000
  eigenvalues    EBANDS =      -486.30505033
  atomic energy  EATOM  =      4120.06598957
  Solvation  Ediel_sol  =         0.00000000
  ---------------------------------------------------
  free energy    TOTEN  =        -0.23330825 eV

  energy without entropy =       -0.23330825  energy(sigma->0) =       -0.23330825


--------------------------------------------------------------------------------------------------------




--------------------------------------- Iteration      1(  17)  ---------------------------------------


    POTLOK:  cpu time      0.3183: real time      0.3207
    SETDIJ:  cpu time      0.4463: real time      0.4484
     EDDAV:  cpu time      0.0613: real time      0.0620
       DOS:  cpu time      0.0002: real time      0.0002
    CHARGE:  cpu time      0.0237: real time      0.0240
    MIXING:  cpu time      0.0056: real time      0.0056
    --------------------------------------------
      LOOP:  cpu time      0.8554: real time      0.8609

 eigenvalue-minimisations  :    40
 total energy-change (2. order) :-0.4039668E-04  (-0.9538509E-06)
 number of electron      17.0000057 magnetization       1.0000000
 augmentation part       10.9633145 magnetization      -0.0799707

 Broyden mixing:
  rms(total) = 0.38422E-03    rms(broyden)= 0.38420E-03
  rms(prec ) = 0.40870E-03
  weight for this iteration     100.00

 eigenvalues of (default mixing * dielectric matrix)
  average eigenvalue GAMMA=   1.3175
  3.9609  2.2980  2.2980  1.2377  1.2377  0.8445  0.8445  0.7306  0.6416  0.5748
  0.5705  0.5705

 Free energy of the ion-electron system (eV)
  ---------------------------------------------------
  alpha Z        PSCENC =         0.52559311
  Ewald energy   TEWEN  =      -390.96587886
  -Hartree energ DENC   =     -3200.28537751
  -exchange      EXHF   =         0.00000000
  -V(xc)+E(xc)   XCENC  =       106.37634361
  PAW double counting   =      3471.09664232    -3620.78669913
  entropy T*S    EENTRO =        -0.00000000
  eigenvalues    EBANDS =      -486.25996176
  atomic energy  EATOM  =      4120.06598957
  Solvation  Ediel_sol  =         0.00000000
  ---------------------------------------------------
  free energy    TOTEN  =        -0.23334864 eV

  energy without entropy =       -0.23334864  energy(sigma->0) =       -0.23334864


--------------------------------------------------------------------------------------------------------




--------------------------------------- Iteration      1(  18)  ---------------------------------------


    POTLOK:  cpu time      0.3227: real time      0.3246
    SETDIJ:  cpu time      0.4470: real time      0.4491
     EDDAV:  cpu time      0.0698: real time      0.0706
       DOS:  cpu time      0.0002: real time      0.0002
    CHARGE:  cpu time      0.0240: real time      0.0244
    MIXING:  cpu time      0.0056: real time      0.0057
    --------------------------------------------
      LOOP:  cpu time      0.8695: real time      0.8746

 eigenvalue-minimisations  :    52
 total energy-change (2. order) : 0.2943531E-04  (-0.3733183E-06)
 number of electron      17.0000057 magnetization       1.0000000
 augmentation part       10.9635104 magnetization      -0.0800222

 Broyden mixing:
  rms(total) = 0.30645E-03    rms(broyden)= 0.30644E-03
  rms(prec ) = 0.31530E-03
  weight for this iteration     100.00

 eigenvalues of (default mixing * dielectric matrix)
  average eigenvalue GAMMA=   1.3301
  4.4911  2.7353  1.9263  1.2658  1.2658  0.9199  0.7943  0.7943  0.7969  0.6382
  0.5919  0.5919  0.4788

 Free energy of the ion-electron system (eV)
  ---------------------------------------------------
  alpha Z        PSCENC =         0.52559311
  Ewald energy   TEWEN  =      -390.96587886
  -Hartree energ DENC   =     -3200.27872048
  -exchange      EXHF   =         0.00000000
  -V(xc)+E(xc)   XCENC  =       106.37595898
  PAW double counting   =      3471.15065704    -3620.84030708
  entropy T*S    EENTRO =        -0.00000000
  eigenvalues    EBANDS =      -486.26661149
  atomic energy  EATOM  =      4120.06598957
  Solvation  Ediel_sol  =         0.00000000
  ---------------------------------------------------
  free energy    TOTEN  =        -0.23331921 eV

  energy without entropy =       -0.23331921  energy(sigma->0) =       -0.23331921


--------------------------------------------------------------------------------------------------------




--------------------------------------- Iteration      1(  19)  ---------------------------------------


    POTLOK:  cpu time      0.3246: real time      0.3268
    SETDIJ:  cpu time      0.4483: real time      0.4505
     EDDAV:  cpu time      0.0725: real time      0.0733
       DOS:  cpu time      0.0002: real time      0.0002
    --------------------------------------------
      LOOP:  cpu time      0.8455: real time      0.8507

 eigenvalue-minimisations  :    52
 total energy-change (2. order) :-0.5567982E-05  (-0.1412627E-06)
 number of electron      17.0000057 magnetization       1.0000000
 augmentation part       10.9635104 magnetization      -0.0800222

 Free energy of the ion-electron system (eV)
  ---------------------------------------------------
  alpha Z        PSCENC =         0.52559311
  Ewald energy   TEWEN  =      -390.96587886
  -Hartree energ DENC   =     -3200.28230087
  -exchange      EXHF   =         0.00000000
  -V(xc)+E(xc)   XCENC  =       106.37605832
  PAW double counting   =      3471.19792385    -3620.89075492
  entropy T*S    EENTRO =        -0.00000000
  eigenvalues    EBANDS =      -486.25995498
  atomic energy  EATOM  =      4120.06598957
  Solvation  Ediel_sol  =         0.00000000
  ---------------------------------------------------
  free energy    TOTEN  =        -0.23332478 eV

  energy without entropy =       -0.23332478  energy(sigma->0) =       -0.23332478


--------------------------------------------------------------------------------------------------------




 average (electrostatic) potential at core
  the test charge radii are     0.8297
  (the norm of the test charge is              1.0000)
       1 -88.5103
 
 
 
 E-fermi :  -4.4291     XC(G=0):  -0.2850     alpha+bet : -0.0435

 Fermi energy:        -4.4291029878

 spin component 1

 k-point     1 :       0.0000    0.0000    0.0000
  band No.  band energies     occupation 
      1     -71.9966      1.00000
      2     -71.9966      1.00000
      3     -71.9966      1.00000
      4      -5.0065      1.00000
      5      -5.0065      1.00000
      6      -5.0064      1.00000
      7      -5.0064      1.00000
      8      -5.0064      1.00000
      9      -4.9639      1.00000
     10      -0.9080      0.00000
     11      -0.9078      0.00000
     12      -0.9076      0.00000
     13      -0.1528      0.00000
     14       0.5193      0.00000
 Fermi energy:        -4.4291029878

 spin component 2

 k-point     1 :       0.0000    0.0000    0.0000
  band No.  band energies     occupation 
      1     -72.0228      1.00000
      2     -72.0228      1.00000
      3     -72.0228      1.00000
      4      -4.8412      1.00000
      5      -4.8411      1.00000
      6      -4.8411      1.00000
      7      -4.8411      1.00000
      8      -4.8411      1.00000
      9      -4.0171      0.00000
     10      -0.1314      0.00000
     11      -0.1309      0.00000
     12      -0.1305      0.00000
     13      -0.0204      0.00000
     14       0.5594      0.00000


--------------------------------------------------------------------------------------------------------


 soft charge-density along one line, spin component           1
         0         1         2         3         4         5         6         7         8         9
 total charge-density along one line
 
 soft charge-density along one line, spin component           2
         0         1         2         3         4         5         6         7         8         9
 total charge-density along one line
 
 pseudopotential strength for first ion, spin component:           1
-73.716   0.000   0.000  11.030  -0.000  -0.000  -0.000   0.000
  0.000 -73.716   0.000  -0.000  11.030  -0.000  -0.000  -0.000
  0.000   0.000 -73.716  -0.000  -0.000  11.030  -0.000  -0.000
 11.030  -0.000  -0.000   5.339   0.000   0.000   0.000  -0.000
 -0.000  11.030  -0.000   0.000   5.339   0.000   0.000   0.000
 -0.000  -0.000  11.030   0.000   0.000   5.339   0.000   0.000
 -0.000  -0.000  -0.000   0.000   0.000   0.000 -12.518   0.000
  0.000  -0.000  -0.000  -0.000   0.000   0.000   0.000 -12.518
  0.000   0.000   0.000  -0.000  -0.000  -0.000  -0.000   0.000
 -0.000  -0.000   0.000   0.000   0.000  -0.000   0.000   0.000
  0.000  -0.000  -0.000  -0.000   0.000   0.000   0.000  -0.000
 -0.000  -0.000  -0.000   0.000   0.000   0.000 -12.987   0.000
  0.000  -0.000  -0.000  -0.000   0.000   0.000   0.000 -12.987
  0.000   0.000   0.000  -0.000  -0.000  -0.000  -0.000   0.000
 -0.000  -0.000   0.000   0.000   0.000  -0.000   0.000   0.000
  0.000  -0.000  -0.000  -0.000   0.000   0.000   0.000  -0.000
  0.000  -0.000   0.000   0.000   0.000  -0.000  -0.000  -0.000
  0.000  -0.000   0.000   0.000   0.000  -0.000  -0.000  -0.000
 pseudopotential strength for first ion, spin component:           2
-73.765   0.000   0.000  11.049  -0.000  -0.000  -0.000   0.000
  0.000 -73.765   0.000  -0.000  11.049  -0.000  -0.000  -0.000
  0.000   0.000 -73.765  -0.000  -0.000  11.049  -0.000  -0.000
 11.049  -0.000  -0.000   5.312   0.000  -0.000   0.000  -0.000
 -0.000  11.049  -0.000   0.000   5.312  -0.000  -0.000   0.000
 -0.000  -0.000  11.049  -0.000  -0.000   5.312   0.000  -0.000
 -0.000  -0.000  -0.000   0.000  -0.000   0.000 -12.556   0.000
  0.000  -0.000  -0.000  -0.000   0.000  -0.000   0.000 -12.556
  0.000   0.000   0.000  -0.000  -0.000  -0.000  -0.000   0.000
 -0.000  -0.000   0.000  -0.000   0.000  -0.000   0.000   0.000
  0.000  -0.000  -0.000  -0.000   0.000   0.000  -0.000  -0.000
 -0.000  -0.000  -0.000   0.000  -0.000   0.000 -13.024   0.000
  0.000  -0.000  -0.000  -0.000   0.000  -0.000   0.000 -13.024
  0.000   0.000   0.000  -0.000  -0.000  -0.000  -0.000   0.000
 -0.000  -0.000   0.000  -0.000   0.000  -0.000   0.000   0.000
  0.000  -0.000  -0.000  -0.000   0.000   0.000  -0.000  -0.000
  0.000  -0.000   0.000   0.000   0.000  -0.000  -0.000  -0.000
  0.000  -0.000   0.000   0.000   0.000  -0.000  -0.000  -0.000
 total augmentation occupancy for first ion, spin component:           1
  2.000  -0.000  -0.000   0.000  -0.000  -0.000  -0.000   0.000   0.000   0.000   0.000   0.000  -0.000  -0.000  -0.000  -0.000
 -0.000   2.000  -0.000  -0.000   0.000  -0.000   0.000  -0.000   0.000  -0.000   0.000  -0.000   0.000  -0.000   0.000   0.000
 -0.000  -0.000   2.000  -0.000  -0.000   0.000  -0.000   0.000   0.000   0.000  -0.000   0.000  -0.000  -0.000  -0.000   0.000
  0.000  -0.000  -0.000   0.000   0.000   0.000   0.000  -0.000  -0.000   0.000  -0.000  -0.000   0.000  -0.000   0.000   0.000
 -0.000   0.000  -0.000   0.000   0.000   0.000   0.000   0.000  -0.000   0.000  -0.000   0.000   0.000  -0.000  -0.000   0.000
 -0.000  -0.000   0.000   0.000   0.000   0.000   0.000   0.000  -0.000  -0.000   0.000   0.000   0.000   0.000   0.000  -0.000
 -0.000   0.000  -0.000   0.000   0.000   0.000   2.082  -0.000   0.000  -0.000   0.000  -0.048   0.000  -0.000   0.000  -0.000
  0.000  -0.000   0.000  -0.000   0.000   0.000  -0.000   2.082  -0.000  -0.000   0.000   0.000  -0.048   0.000   0.000  -0.000
  0.000   0.000   0.000  -0.000  -0.000  -0.000   0.000  -0.000   2.082   0.000   0.000  -0.000   0.000  -0.048  -0.000  -0.000
  0.000  -0.000   0.000   0.000   0.000  -0.000  -0.000  -0.000   0.000   2.082  -0.000   0.000   0.000  -0.000  -0.048   0.000
  0.000   0.000  -0.000  -0.000  -0.000   0.000   0.000   0.000   0.000  -0.000   2.082  -0.000  -0.000  -0.000   0.000  -0.048
  0.000  -0.000   0.000  -0.000   0.000   0.000  -0.048   0.000  -0.000   0.000  -0.000   0.013   0.000   0.000  -0.000   0.000
 -0.000   0.000  -0.000   0.000   0.000   0.000   0.000  -0.048   0.000   0.000  -0.000   0.000   0.013  -0.000  -0.000   0.000
 -0.000  -0.000  -0.000  -0.000  -0.000   0.000  -0.000   0.000  -0.048  -0.000  -0.000   0.000  -0.000   0.013   0.000  -0.000
 -0.000   0.000  -0.000   0.000  -0.000   0.000   0.000   0.000  -0.000  -0.048   0.000  -0.000  -0.000   0.000   0.013  -0.000
 -0.000   0.000   0.000   0.000   0.000  -0.000  -0.000  -0.000  -0.000   0.000  -0.048   0.000   0.000  -0.000  -0.000   0.013
 -0.000   0.000  -0.000   0.000  -0.000   0.000  -0.000  -0.000  -0.000  -0.000   0.000   0.000   0.000   0.000   0.000  -0.000
  0.000  -0.000   0.000   0.000  -0.000   0.000   0.000  -0.000  -0.000   0.000  -0.000   0.000  -0.000   0.000   0.000   0.000
 total augmentation occupancy for first ion, spin component:           2
  0.000   0.000   0.000   0.002   0.000   0.000  -0.000   0.000   0.000  -0.000   0.000   0.000  -0.000  -0.000   0.000  -0.000
  0.000   0.000   0.000   0.000   0.002   0.000  -0.000  -0.000   0.000  -0.000  -0.000   0.000   0.000  -0.000   0.000   0.000
  0.000   0.000   0.000   0.000   0.000   0.002  -0.000  -0.000   0.000   0.000  -0.000   0.000   0.000  -0.000  -0.000   0.000
  0.002   0.000   0.000   0.000  -0.000  -0.000  -0.000  -0.000  -0.000   0.000   0.000   0.000  -0.000  -0.000   0.000  -0.000
  0.000   0.002   0.000  -0.000   0.000  -0.000   0.000   0.000  -0.000   0.000   0.000   0.000   0.000  -0.000   0.000  -0.000
  0.000   0.000   0.002  -0.000  -0.000   0.000   0.000   0.000   0.000   0.000  -0.000   0.000   0.000  -0.000  -0.000   0.000
 -0.000  -0.000  -0.000  -0.000   0.000   0.000  -0.341  -0.000  -0.000   0.000  -0.000   0.166   0.000   0.000  -0.000   0.000
  0.000  -0.000  -0.000  -0.000   0.000   0.000  -0.000  -0.341   0.000   0.000  -0.000   0.000   0.166  -0.000  -0.000   0.000
  0.000   0.000   0.000  -0.000  -0.000   0.000  -0.000   0.000  -0.341  -0.000   0.000   0.000  -0.000   0.166   0.000  -0.000
 -0.000  -0.000   0.000   0.000   0.000   0.000   0.000   0.000  -0.000  -0.341   0.000  -0.000  -0.000   0.000   0.166  -0.000
  0.000  -0.000  -0.000   0.000   0.000  -0.000  -0.000  -0.000   0.000   0.000  -0.341   0.000   0.000  -0.000  -0.000   0.166
  0.000   0.000   0.000   0.000   0.000   0.000   0.166   0.000   0.000  -0.000   0.000  -0.005   0.000  -0.000   0.000  -0.000
 -0.000   0.000   0.000  -0.000   0.000   0.000   0.000   0.166  -0.000  -0.000   0.000   0.000  -0.005   0.000   0.000  -0.000
 -0.000  -0.000  -0.000  -0.000  -0.000  -0.000   0.000  -0.000   0.166   0.000  -0.000  -0.000   0.000  -0.005  -0.000  -0.000
  0.000   0.000  -0.000   0.000   0.000  -0.000  -0.000  -0.000   0.000   0.166  -0.000   0.000   0.000  -0.000  -0.005   0.000
 -0.000   0.000   0.000  -0.000  -0.000   0.000   0.000   0.000  -0.000  -0.000   0.166  -0.000  -0.000  -0.000   0.000  -0.005
 -0.000   0.000  -0.000   0.000  -0.000   0.000   0.000   0.000   0.000   0.000  -0.000  -0.000   0.000   0.000   0.000   0.000
  0.000  -0.000   0.000   0.000  -0.000   0.000   0.000  -0.000   0.000   0.000   0.000   0.000  -0.000  -0.000   0.000  -0.000


------------------------ aborting loop because EDIFF is reached ----------------------------------------


    CHARGE:  cpu time      0.0252: real time      0.0255
    FORLOC:  cpu time      0.0020: real time      0.0021
    FORNL :  cpu time      0.0058: real time      0.0058
    STRESS:  cpu time      0.0200: real time      0.0202
    FORCOR:  cpu time      0.3097: real time      0.3118
    FORHAR:  cpu time      0.0296: real time      0.0298
    MIXING:  cpu time      0.0062: real time      0.0062
    OFIELD:  cpu time      0.0000: real time      0.0000

  FORCE on cell =-STRESS in cart. coord.  units (eV):
  Direction    XX          YY          ZZ          XY          YZ          ZX
  --------------------------------------------------------------------------------------
  Alpha Z     0.52559     0.52559     0.52559
  Ewald    -127.69171  -130.32428  -132.94989     0.00000     0.00000     0.00000
  Hartree  1069.36408  1066.75498  1064.15254    -0.00002    -0.00002    -0.00001
  E(xc)    -133.95618  -133.95617  -133.95620    -0.00000    -0.00000    -0.00000
  Local   -1107.51786 -1102.27494 -1097.04660     0.00003     0.00004     0.00002
  n-local   -97.30780   -97.30883   -97.30924     0.00001     0.00000    -0.00000
  augment   182.76186   182.75821   182.74820     0.00001     0.00001     0.00001
  Kinetic   213.61824   213.61799   213.61803    -0.00000    -0.00000    -0.00000
  Fock        0.00000     0.00000     0.00000     0.00000     0.00000     0.00000
  -------------------------------------------------------------------------------------
  Total      -0.20378    -0.20745    -0.21757     0.00002     0.00003     0.00001
  in kB      -0.09483    -0.09654    -0.10125     0.00001     0.00001     0.00001
  external pressure =       -0.10 kB  Pullay stress =        0.00 kB


 VOLUME and BASIS-vectors are now :
 -----------------------------------------------------------------------------
  energy-cutoff  :      520.00
  volume of cell :     3442.80
      direct lattice vectors                 reciprocal lattice vectors
    15.000000000  0.000000000  0.000000000     0.066666667 -0.000000000  0.000000000
     0.000000000 15.100000000  0.000000000     0.000000000  0.066225166  0.000000000
     0.000000000  0.000000000 15.200000000    -0.000000000 -0.000000000  0.065789474

  length of vectors
    15.000000000 15.100000000 15.200000000     0.066666667  0.066225166  0.065789474


 FORCES acting on ions
    electron-ion (+dipol)            ewald-force                    non-local-force                 convergence-correction
 -----------------------------------------------------------------------------------------------
   0.766E-04 0.504E-04 -.367E-04   0.886E-16 0.191E-16 0.528E-16   0.251E-04 0.301E-04 -.705E-05   -.102E-03 -.874E-04 0.467E-04
 -----------------------------------------------------------------------------------------------
   0.766E-04 0.504E-04 -.367E-04   0.886E-16 0.191E-16 0.528E-16   0.251E-04 0.301E-04 -.705E-05   -.102E-03 -.874E-04 0.467E-04
 
 
 POSITION                                       TOTAL-FORCE (eV/Angst)
 -----------------------------------------------------------------------------------
      0.00000      0.00000      0.00000        -0.000001     -0.000007      0.000003
 -----------------------------------------------------------------------------------
    total drift:                               -0.000001     -0.000007      0.000003


--------------------------------------------------------------------------------------------------------



  FREE ENERGIE OF THE ION-ELECTRON SYSTEM (eV)
  ---------------------------------------------------
  free  energy   TOTEN  =        -0.23332478 eV

  energy  without entropy=       -0.23332478  energy(sigma->0) =       -0.23332478
 


--------------------------------------------------------------------------------------------------------


    POTLOK:  cpu time      0.7679: real time      0.7722


--------------------------------------------------------------------------------------------------------


     LOOP+:  cpu time     15.0914: real time     15.1902
    4ORBIT:  cpu time      0.0000: real time      0.0000

 total amount of memory used by VASP MPI-rank0    58630. kBytes
=======================================================================

   base      :      30000. kBytes
   nonl-proj :        233. kBytes
   fftplans  :       8156. kBytes
   grid      :      19898. kBytes
   one-center:         15. kBytes
   wavefun   :        328. kBytes
 
  
  
 General timing and accounting informations for this job:
 ========================================================
  
                  Total CPU time used (sec):       16.581
                            User time (sec):       15.005
                          System time (sec):        1.576
                         Elapsed time (sec):       17.219
  
                   Maximum memory used (kb):      451832.
                   Average memory used (kb):          N/A
  
                          Minor page faults:        92239
                          Major page faults:           24
                 Voluntary context switches:         1282
