 vasp.6.4.2 20Jul23 (build Aug 07 2024 12:45:50) gamma-only                     
  
 executed on             LinuxIFC date 2026.09.30  12:36:42
 running   64 mpi-ranks, on    1 nodes
 distrk:  each k-point on   64 cores,    1 groups
 distr:  one band on NCORE=  32 cores,    2 groups


--------------------------------------------------------------------------------------------------------


 INCAR:
   ALGO = Normal
   EDIFF = 1e-05
   EFERMI = Midgap
   ENCUT = 520.0
   GGA = Pe
   GGA_COMPAT = False
   IBRION = -1
   ISMEAR = 0
   ISPIN = 2
   ISYM = 0
   LAECHG = False
   LASPH = True
   LCHARG = False
   LMAXMIX = 6
   LMIXTAU = True
   LREAL = False
   LWAVE = False
   MAGMOM = 1*2.0
   NCORE = 32
   NELM = 400
   NSW = 0
   PREC = Accurate
   SIGMA = 0.05
   SYSTEM = Ti_atom_ispin2

 POTCAR:    PAW_PBE Ti_pv 07Sep2000               
 -----------------------------------------------------------------------------
|                                                                             |
|           W    W    AA    RRRRR   N    N  II  N    N   GGGG   !!!           |
|           W    W   A  A   R    R  NN   N  II  NN   N  G    G  !!!           |
|           W    W  A    A  R    R  N N  N  II  N N  N  G       !!!           |
|           W WW W  AAAAAA  RRRRR   N  N N  II  N  N N  G  GGG   !            |
|           WW  WW  A    A  R   R   N   NN  II  N   NN  G    G                |
|           W    W  A    A  R    R  N    N  II  N    N   GGGG   !!!           |
|                                                                             |
|     For optimal performance we recommend to set                             |
|       NCORE = 2 up to number-of-cores-per-socket                            |
|     NCORE specifies how many cores store one orbital (NPAR=cpu/NCORE).      |
|     This setting can greatly improve the performance of VASP for DFT.       |
|     The default, NCORE=1 might be grossly inefficient on modern             |
|     multi-core architectures or massively parallel machines. Do your        |
|     own testing! More info at https://www.vasp.at/wiki/index.php/NCORE      |
|     Unfortunately you need to use the default for GW and RPA                |
|     calculations (for HF NCORE is supported but not extensively tested      |
|     yet).                                                                   |
|                                                                             |
 -----------------------------------------------------------------------------

 POTCAR:    PAW_PBE Ti_pv 07Sep2000               
   SHA256 =  f757a1b2c6d082f4c628fa3d987464a8763bf92e53844ac0500b0e2ddc9ce5c0 Ti_pv/POTCAR          
   COPYR  = (c) Copyright 07Sep2000 Georg Kresse                                                    
   COPYR  = This file is part of the software VASP. Any use, copying, and all other rights are regul
   COPYR  = If you do not have a valid VASP license, you may not use, copy or distribute this file. 
   VRHFIN =Ti: d3 s1                                                                                
   LEXCH  = PE                                                                                      
   EATOM  =  1042.5995 eV,   76.6289 Ry                                                             
                                                                                                    
   TITEL  = PAW_PBE Ti_pv 07Sep2000                                                                 
   LULTRA =        F    use ultrasoft PP ?                                                          
   IUNSCR =        1    unscreen: 0-lin 1-nonlin 2-no                                               
   RPACOR =    2.200    partial core radius                                                         
   POMASS =   47.880; ZVAL   =   10.000    mass and valenz                                          
   RCORE  =    2.500    outmost cutoff radius                                                       
   RWIGS  =    2.500; RWIGS  =    1.323    wigner-seitz radius (au A)                               
   ENMAX  =  222.335; ENMIN  =  166.751 eV                                                          
   RCLOC  =    1.701    cutoff for local pot                                                        
   LCOR   =        T    correct aug charges                                                         
   LPAW   =        T    paw PP                                                                      
   EAUG   =  482.848                                                                                
   DEXC   =    0.000                                                                                
   RMAX   =    2.564    core radius for proj-oper                                                   
   RAUG   =    1.300    factor for augmentation sphere                                              
   RDEP   =    2.538    radius for radial grids                                                     
   RDEPT  =    1.952    core radius for aug-charge                                                  
                                                                                                    
   Atomic configuration                                                                             
    8 entries                                                                                       
     n  l   j            E        occ.                                                              
     1  0  0.50     -4865.3608   2.0000                                                             
     2  0  0.50      -533.1368   2.0000                                                             
     2  1  1.50      -440.5031   6.0000                                                             
     3  0  0.50       -59.3186   2.0000                                                             
     3  1  1.50       -35.7012   6.0000                                                             
     3  2  2.50        -1.9157   3.0000                                                             
     4  0  0.50        -3.7291   1.0000                                                             
     4  3  2.50        -1.3606   0.0000                                                             
   Description                                                                                      
     l       E           TYP  RCUT    TYP  RCUT                                                     
     1    -35.7012140     23  2.300                                                                 
     1     -1.3605826     23  2.300                                                                 
     2     -1.9156996     23  2.500                                                                 
     2     -0.4063033     23  2.500                                                                 
     0     -3.7290856     23  2.500                                                                 
     0     20.4087390     23  2.500                                                                 
  local pseudopotential read in
  partial core-charges read in
  partial kinetic energy density read in
  atomic valenz-charges read in
  non local Contribution for L=           1  read in
    real space projection operators read in
  non local Contribution for L=           1  read in
    real space projection operators read in
  non local Contribution for L=           2  read in
    real space projection operators read in
  non local Contribution for L=           2  read in
    real space projection operators read in
  non local Contribution for L=           0  read in
    real space projection operators read in
  non local Contribution for L=           0  read in
    real space projection operators read in
    PAW grid and wavefunctions read in
 
   number of l-projection  operators is LMAX  =           6
   number of lm-projection operators is LMMAX =          18
 
  PAW_PBE Ti_pv 07Sep2000               :
 energy of atom  1       EATOM=-1042.5995
 kinetic energy error for atom=    0.0019 (will be added to EATOM!!)
 
 
 POSCAR: Ti1
  positions in direct lattice
  No initial velocities read in
 exchange correlation table for  LEXCH =        8
   RHO(1)=    0.500       N(1)  =     2000
   RHO(2)=  100.500       N(2)  =     4000
 


--------------------------------------------------------------------------------------------------------


 ion  position               nearest neighbor table
   1  0.000  0.000  0.000-
 

IMPORTANT INFORMATION: All symmetrisations will be switched off!
NOSYMM: (Re-)initialisation of all symmetry stuff for point group C_1.


----------------------------------------------------------------------------------------

                                     Primitive cell                                     

  volume of cell :    5929.5600

  direct lattice vectors                    reciprocal lattice vectors
    18.000000000  0.000000000  0.000000000     0.055555556 -0.000000000  0.000000000
     0.000000000 18.100000000  0.000000000     0.000000000  0.055248619  0.000000000
     0.000000000  0.000000000 18.200000000    -0.000000000 -0.000000000  0.054945055

  length of vectors
    18.000000000 18.100000000 18.200000000     0.055555556  0.055248619  0.054945055

  position of ions in fractional coordinates (direct lattice)
     0.000000000  0.000000000  0.000000000

  ion indices of the primitive-cell ions
   primitive index   ion index
                 1           1

----------------------------------------------------------------------------------------

 
 
 KPOINTS: Automatic kpoint scheme                 

Automatic generation of k-mesh.
 Grid dimensions read from file:
 generate k-points for:    1    1    1

 Generating k-lattice:

  Cartesian coordinates                     Fractional coordinates (reciprocal lattice)
     0.055555556 -0.000000000  0.000000000     1.000000000 -0.000000000  0.000000000
     0.000000000  0.055248619  0.000000000     0.000000000  1.000000000  0.000000000
    -0.000000000 -0.000000000  0.054945055    -0.000000000 -0.000000000  1.000000000

  Length of vectors
     0.055555556  0.055248619  0.054945055

  Shift w.r.t. Gamma in fractional coordinates (k-lattice)
     0.000000000  0.000000000  0.000000000

 
 Subroutine IBZKPT returns following result:
 ===========================================
 
 Found      1 irreducible k-points:
 
 Following reciprocal coordinates:
            Coordinates               Weight
  0.000000  0.000000  0.000000      1.000000
 
 Following cartesian coordinates:
            Coordinates               Weight
  0.000000  0.000000  0.000000      1.000000
 


--------------------------------------------------------------------------------------------------------




 Dimension of arrays:
   k-points           NKPTS =      1   k-points in BZ     NKDIM =      1   number of bands    NBANDS=     10
   number of dos      NEDOS =    301   number of ions     NIONS =      1
   non local maximal  LDIM  =      6   non local SUM 2l+1 LMDIM =     18
   total plane-waves  NPLWV = ******
   max r-space proj   IRMAX =      1   max aug-charges    IRDMAX=  18164
   dimension x,y,z NGX =   140 NGY =  140 NGZ =  140
   dimension x,y,z NGXF=   280 NGYF=  280 NGZF=  280
   support grid    NGXF=   280 NGYF=  280 NGZF=  280
   ions per type =               1
   NGX,Y,Z   is equivalent  to a cutoff of  12.93, 12.86, 12.79 a.u.
   NGXF,Y,Z  is equivalent  to a cutoff of  25.86, 25.72, 25.58 a.u.

 SYSTEM =  Ti_atom_ispin2                          
 POSCAR =  Ti1                                     

 Startparameter for this run:
   NWRITE =      2    write-flag & timer
   PREC   = accura    normal or accurate (medium, high low for compatibility)
   ISTART =      0    job   : 0-new  1-cont  2-samecut
   ICHARG =      2    charge: 1-file 2-atom 10-const
   ISPIN  =      2    spin polarized calculation?
   LNONCOLLINEAR =      F non collinear calculations
   LSORBIT =      F    spin-orbit coupling
   INIWAV =      1    electr: 0-lowe 1-rand  2-diag
   LASPH  =      T    aspherical Exc in radial PAW
 Electronic Relaxation 1
   ENCUT  =  520.0 eV  38.22 Ry    6.18 a.u.  33.47 33.65 33.84*2*pi/ulx,y,z
   ENINI  =  520.0     initial cutoff
   ENAUG  =  482.8 eV  augmentation charge cutoff
   NELM   =    400;   NELMIN=  2; NELMDL= -5     # of ELM steps 
   EDIFF  = 0.1E-04   stopping-criterion for ELM
   LREAL  =      F    real-space projection
   NLSPLINE    = F    spline interpolate recip. space projectors
   LCOMPAT=      F    compatible to vasp.4.4
   GGA_COMPAT  = F    GGA compatible to vasp.4.4-vasp.4.6
   LMAXPAW     = -100 max onsite density
   LMAXMIX     =    6 max onsite mixed and CHGCAR
   VOSKOWN=      0    Vosko Wilk Nusair interpolation
   ROPT   =    0.00000
 Ionic relaxation
   EDIFFG = 0.1E-03   stopping-criterion for IOM
   NSW    =      0    number of steps for IOM
   NBLOCK =      1;   KBLOCK =      1    inner block; outer block 
   IBRION =     -1    ionic relax: 0-MD 1-quasi-New 2-CG
   NFREE  =      0    steps in history (QN), initial steepest desc. (CG)
   ISIF   =      2    stress and relaxation
   IWAVPR =     10    prediction:  0-non 1-charg 2-wave 3-comb
   ISYM   =      0    0-nonsym 1-usesym 2-fastsym
   LCORR  =      T    Harris-Foulkes like correction to forces

   POTIM  = 0.5000    time-step for ionic-motion
   TEIN   =    0.0    initial temperature
   TEBEG  =    0.0;   TEEND  =   0.0 temperature during run
   SMASS  =  -3.00    Nose mass-parameter (am)
   estimated Nose-frequenzy (Omega)   =  0.10E-29 period in steps = 0.13E+47 mass=  -0.740E-26a.u.
   SCALEE = 1.0000    scale energy and forces
   NPACO  =    256;   APACO  = 10.0  distance and # of slots for P.C.
   PSTRESS=    0.0 pullay stress

  Mass of Ions in am
   POMASS =  47.88
  Ionic Valenz
   ZVAL   =  10.00
  Atomic Wigner-Seitz radii
   RWIGS  =  -1.00
  virtual crystal weights 
   VCA    =   1.00
   NELECT =      10.0000    total number of electrons
   NUPDOWN=      -1.0000    fix difference up-down

 DOS related values:
   EMIN   =  10.00;   EMAX   =-10.00  energy-range for DOS
   EFERMI =   0.00;   METHOD = MIDGAP      
   ISMEAR =     0;   SIGMA  =   0.05  broadening in eV -4-tet -1-fermi 0-gaus

 Electronic relaxation 2 (details)
   IALGO  =     38    algorithm
   LDIAG  =      T    sub-space diagonalisation (order eigenvalues)
   LSUBROT=      F    optimize rotation matrix (better conditioning)
   TURBO    =      0    0=normal 1=particle mesh
   IRESTART =      0    0=no restart 2=restart with 2 vectors
   NREBOOT  =      0    no. of reboots
   NMIN     =      0    reboot dimension
   EREF     =   0.00    reference energy to select bands
   IMIX   =      4    mixing-type and parameters
     AMIX     =   0.40;   BMIX     =  1.00
     AMIX_MAG =   1.60;   BMIX_MAG =  1.00
     AMIN     =   0.10
     WC   =   100.;   INIMIX=   1;  MIXPRE=   1;  MAXMIX= -45

 Intra band minimization:
   WEIMIN = 0.0000     energy-eigenvalue tresh-hold
   EBREAK =  0.25E-06  absolut break condition
   DEPER  =   0.30     relativ break condition  

   TIME   =   0.40     timestep for ELM

  volume/ion in A,a.u.               =    5929.56     40014.65
  Fermi-wavevector in a.u.,A,eV,Ry     =   0.194865  0.368242  0.516646  0.037972
  Thomas-Fermi vector in A             =   0.941284
 
 Write flags
   LWAVE        =      F    write WAVECAR
   LDOWNSAMPLE  =      F    k-point downsampling of WAVECAR
   LCHARG       =      F    write CHGCAR
   LVTOT        =      F    write LOCPOT, total local potential
   LVHAR        =      F    write LOCPOT, Hartree potential only
   LELF         =      F    write electronic localiz. function (ELF)
   LORBIT       =      0    0 simple, 1 ext, 2 COOP (PROOUT), +10 PAW based schemes


 Dipole corrections
   LMONO  =      F    monopole corrections only (constant potential shift)
   LDIPOL =      F    correct potential (dipole corrections)
   IDIPOL =      0    1-x, 2-y, 3-z, 4-all directions 
   EPSILON=  1.0000000 bulk dielectric constant

 Exchange correlation treatment:
   GGA     =    PE    GGA type
   LEXCH   =     8    internal setting for exchange type
   LIBXC   =     F    Libxc                    
   VOSKOWN =     0    Vosko Wilk Nusair interpolation
   LHFCALC =     F    Hartree Fock is set to
   LHFONE  =     F    Hartree Fock one center treatment
   AEXX    =    0.0000 exact exchange contribution

 Linear response parameters
   LEPSILON=     F    determine dielectric tensor
   LRPA    =     F    only Hartree local field effects (RPA)
   LNABLA  =     F    use nabla operator in PAW spheres
   LVEL    =     F    velocity operator in full k-point grid
   CSHIFT  =0.1000    complex shift for real part using Kramers Kronig
   OMEGAMAX=  -1.0    maximum frequency
   DEG_THRESHOLD= 0.2000000E-02 threshold for treating states as degnerate
   RTIME   =   -0.100 relaxation time in fs
  (WPLASMAI=    0.000 imaginary part of plasma frequency in eV, 0.658/RTIME)
   DFIELD  = 0.0000000 0.0000000 0.0000000 field for delta impulse in time
 
  Optional k-point grid parameters
   LKPOINTS_OPT  =     F    use optional k-point grid
   KPOINTS_OPT_MODE=     1    mode for optional k-point grid
 
 Orbital magnetization related:
   ORBITALMAG=     F  switch on orbital magnetization
   LCHIMAG   =     F  perturbation theory with respect to B field
   DQ        =  0.001000  dq finite difference perturbation B field
   LLRAUG    =     F  two centre corrections for induced B field
   LBONE     =     F  B-component reconstruction in AE one-centre
   LVGVCALC  =     T  calculate vGv susceptibility
   LVGVAPPL  =     F  apply vGv susceptibility instead of pGv for G=0

 Random number generation:
   RANDOM_GENERATOR = DEFAULT
   PCG_SEED         = not used


--------------------------------------------------------------------------------------------------------


 Static calculation
 charge density and potential will be updated during run
 spin polarized calculation
 Variant of blocked Davidson
 Davidson routine will perform the subspace rotation
 perform sub-space diagonalisation
    after iterative eigenvector-optimisation
 modified Broyden-mixing scheme, WC =      100.0
 initial mixing is a Kerker type mixing with AMIX =  0.4000 and BMIX =      1.0000
 Hartree-type preconditioning will be used
 using additional bands            5
 reciprocal scheme for non local part
 use partial core corrections
 calculate Harris-corrections to forces 
   (improved forces if not selfconsistent)
 use gradient corrections 
 use of overlap-Matrix (Vanderbilt PP)
 Gauss-broadening in eV      SIGMA  =   0.05


--------------------------------------------------------------------------------------------------------


  energy-cutoff  :      520.00
  volume of cell :     5929.56
      direct lattice vectors                 reciprocal lattice vectors
    18.000000000  0.000000000  0.000000000     0.055555556 -0.000000000  0.000000000
     0.000000000 18.100000000  0.000000000     0.000000000  0.055248619  0.000000000
     0.000000000  0.000000000 18.200000000    -0.000000000 -0.000000000  0.054945055

  length of vectors
    18.000000000 18.100000000 18.200000000     0.055555556  0.055248619  0.054945055


 
 k-points in units of 2pi/SCALE and weight: Automatic kpoint scheme                 
   0.00000000  0.00000000  0.00000000       1.000
 
 k-points in reciprocal lattice and weights: Automatic kpoint scheme                 
   0.00000000  0.00000000  0.00000000       1.000
 
 position of ions in fractional coordinates (direct lattice) 
   0.00000000  0.00000000  0.00000000
 
 position of ions in cartesian coordinates  (Angst):
   0.00000000  0.00000000  0.00000000
 


--------------------------------------------------------------------------------------------------------


 use parallel FFT for orbitals z direction half grid
 k-point   1 :   0.0000 0.0000 0.0000  plane waves:   79868

 maximum and minimum number of plane-waves per node :      2508     2479

 maximum number of plane-waves:     79868
 maximum index in each direction: 
   IXMAX=   33   IYMAX=   33   IZMAX=   33
   IXMIN=  -33   IYMIN=  -33   IZMIN=    0


 parallel 3D FFT for wavefunctions:
    minimum data exchange during FFTs selected (reduces bandwidth)
 parallel 3D FFT for charge:
    minimum data exchange during FFTs selected (reduces bandwidth)


 total amount of memory used by VASP MPI-rank0    81989. kBytes
=======================================================================

   base      :      30000. kBytes
   nonl-proj :        396. kBytes
   fftplans  :      14937. kBytes
   grid      :      36243. kBytes
   one-center:         15. kBytes
   wavefun   :        398. kBytes
 
     INWAV:  cpu time      0.0000: real time      0.0000
 Broyden mixing: mesh for mixing (old mesh)
   NGX = 67   NGY = 67   NGZ = 67
  (NGX  =280   NGY  =280   NGZ  =280)
  gives a total of 300763 points

 initial charge density was supplied:
 charge density of overlapping atoms calculated
 number of electron      10.0000000 magnetization       2.0000000
 keeping initial charge density in first step


--------------------------------------------------------------------------------------------------------


 Maximum index for augmentation-charges          799 (set IRDMAX)


--------------------------------------------------------------------------------------------------------


 First call to EWALD:  gamma=   0.098
 Maximum number of real-space cells 3x 3x 3
 Maximum number of reciprocal cells 3x 3x 3

    FEWALD:  cpu time      0.0019: real time      0.0019


--------------------------------------- Ionic step        1  -------------------------------------------




--------------------------------------- Iteration      1(   1)  ---------------------------------------


    POTLOK:  cpu time      0.5858: real time      0.5900
    SETDIJ:  cpu time      0.4651: real time      0.4673
     EDDAV:  cpu time      0.1322: real time      0.1334
       DOS:  cpu time      0.0002: real time      0.0002
    --------------------------------------------
      LOOP:  cpu time      1.1833: real time      1.1909

 eigenvalue-minimisations  :    40
 total energy-change (2. order) : 0.2198668E+03  (-0.1115788E+03)
 number of electron      10.0000000 magnetization       2.0000000
 augmentation part       10.0000000 magnetization       2.0000000

 Free energy of the ion-electron system (eV)
  ---------------------------------------------------
  alpha Z        PSCENC =         0.18391265
  Ewald energy   TEWEN  =      -112.86085496
  -Hartree energ DENC   =      -740.77894906
  -exchange      EXHF   =         0.00000000
  -V(xc)+E(xc)   XCENC  =        33.86170957
  PAW double counting   =       818.50593000     -817.85104176
  entropy T*S    EENTRO =        -0.00094340
  eigenvalues    EBANDS =        -3.79059868
  atomic energy  EATOM  =      1042.59758728
  Solvation  Ediel_sol  =         0.00000000
  ---------------------------------------------------
  free energy    TOTEN  =       219.86675163 eV

  energy without entropy =      219.86769503  energy(sigma->0) =      219.86722333


--------------------------------------------------------------------------------------------------------




--------------------------------------- Iteration      1(   2)  ---------------------------------------


     EDDAV:  cpu time      0.1729: real time      0.1749
       DOS:  cpu time      0.0003: real time      0.0003
    --------------------------------------------
      LOOP:  cpu time      0.1732: real time      0.1753

 eigenvalue-minimisations  :    70
 total energy-change (2. order) :-0.2002169E+03  (-0.1976395E+03)
 number of electron      10.0000000 magnetization       2.0000000
 augmentation part       10.0000000 magnetization       2.0000000

 Free energy of the ion-electron system (eV)
  ---------------------------------------------------
  alpha Z        PSCENC =         0.18391265
  Ewald energy   TEWEN  =      -112.86085496
  -Hartree energ DENC   =      -740.77894906
  -exchange      EXHF   =         0.00000000
  -V(xc)+E(xc)   XCENC  =        33.86170957
  PAW double counting   =       818.50593000     -817.85104176
  entropy T*S    EENTRO =        -0.01834489
  eigenvalues    EBANDS =      -203.99013596
  atomic energy  EATOM  =      1042.59758728
  Solvation  Ediel_sol  =         0.00000000
  ---------------------------------------------------
  free energy    TOTEN  =        19.64981286 eV

  energy without entropy =       19.66815775  energy(sigma->0) =       19.65898531


--------------------------------------------------------------------------------------------------------




--------------------------------------- Iteration      1(   3)  ---------------------------------------


     EDDAV:  cpu time      0.1268: real time      0.1283
       DOS:  cpu time      0.0003: real time      0.0003
    --------------------------------------------
      LOOP:  cpu time      0.1272: real time      0.1286

 eigenvalue-minimisations  :    48
 total energy-change (2. order) :-0.2036788E+02  (-0.2034568E+02)
 number of electron      10.0000000 magnetization       2.0000000
 augmentation part       10.0000000 magnetization       2.0000000

 Free energy of the ion-electron system (eV)
  ---------------------------------------------------
  alpha Z        PSCENC =         0.18391265
  Ewald energy   TEWEN  =      -112.86085496
  -Hartree energ DENC   =      -740.77894906
  -exchange      EXHF   =         0.00000000
  -V(xc)+E(xc)   XCENC  =        33.86170957
  PAW double counting   =       818.50593000     -817.85104176
  entropy T*S    EENTRO =        -0.03818819
  eigenvalues    EBANDS =      -224.33816905
  atomic energy  EATOM  =      1042.59758728
  Solvation  Ediel_sol  =         0.00000000
  ---------------------------------------------------
  free energy    TOTEN  =        -0.71806353 eV

  energy without entropy =       -0.67987534  energy(sigma->0) =       -0.69896943


--------------------------------------------------------------------------------------------------------




--------------------------------------- Iteration      1(   4)  ---------------------------------------


     EDDAV:  cpu time      0.1255: real time      0.1270
       DOS:  cpu time      0.0002: real time      0.0002
    --------------------------------------------
      LOOP:  cpu time      0.1257: real time      0.1271

 eigenvalue-minimisations  :    46
 total energy-change (2. order) :-0.1392009E+01  (-0.3892766E+00)
 number of electron      10.0000000 magnetization       2.0000000
 augmentation part       10.0000000 magnetization       2.0000000

 Free energy of the ion-electron system (eV)
  ---------------------------------------------------
  alpha Z        PSCENC =         0.18391265
  Ewald energy   TEWEN  =      -112.86085496
  -Hartree energ DENC   =      -740.77894906
  -exchange      EXHF   =         0.00000000
  -V(xc)+E(xc)   XCENC  =        33.86170957
  PAW double counting   =       818.50593000     -817.85104176
  entropy T*S    EENTRO =        -0.00000000
  eigenvalues    EBANDS =      -225.76836577
  atomic energy  EATOM  =      1042.59758728
  Solvation  Ediel_sol  =         0.00000000
  ---------------------------------------------------
  free energy    TOTEN  =        -2.11007205 eV

  energy without entropy =       -2.11007205  energy(sigma->0) =       -2.11007205


--------------------------------------------------------------------------------------------------------




--------------------------------------- Iteration      1(   5)  ---------------------------------------


     EDDAV:  cpu time      0.1998: real time      0.2015
       DOS:  cpu time      0.0004: real time      0.0004
    CHARGE:  cpu time      0.0461: real time      0.0465
    MIXING:  cpu time      0.0126: real time      0.0127
    --------------------------------------------
      LOOP:  cpu time      0.2590: real time      0.2611

 eigenvalue-minimisations  :    68
 total energy-change (2. order) :-0.2589447E+00  (-0.2518400E+00)
 number of electron      10.0000004 magnetization       2.0000001
 augmentation part        4.5133629 magnetization       0.8970826

 Broyden mixing:
  rms(total) = 0.64036E+00    rms(broyden)= 0.63957E+00
  rms(prec ) = 0.68411E+00
  weight for this iteration     100.00

 Free energy of the ion-electron system (eV)
  ---------------------------------------------------
  alpha Z        PSCENC =         0.18391265
  Ewald energy   TEWEN  =      -112.86085496
  -Hartree energ DENC   =      -740.77894906
  -exchange      EXHF   =         0.00000000
  -V(xc)+E(xc)   XCENC  =        33.86170957
  PAW double counting   =       818.50593000     -817.85104176
  entropy T*S    EENTRO =        -0.02198591
  eigenvalues    EBANDS =      -226.00532456
  atomic energy  EATOM  =      1042.59758728
  Solvation  Ediel_sol  =         0.00000000
  ---------------------------------------------------
  free energy    TOTEN  =        -2.36901675 eV

  energy without entropy =       -2.34703085  energy(sigma->0) =       -2.35802380


--------------------------------------------------------------------------------------------------------




--------------------------------------- Iteration      1(   6)  ---------------------------------------


    POTLOK:  cpu time      0.6050: real time      0.6104
    SETDIJ:  cpu time      0.4635: real time      0.4658
     EDDAV:  cpu time      0.1718: real time      0.1734
       DOS:  cpu time      0.0003: real time      0.0003
    CHARGE:  cpu time      0.0441: real time      0.0446
    MIXING:  cpu time      0.0106: real time      0.0107
    --------------------------------------------
      LOOP:  cpu time      1.2954: real time      1.3053

 eigenvalue-minimisations  :    60
 total energy-change (2. order) : 0.2332765E+00  (-0.3429227E+00)
 number of electron      10.0000006 magnetization       2.0465558
 augmentation part        4.7791633 magnetization       0.7104256

 Broyden mixing:
  rms(total) = 0.46522E+00    rms(broyden)= 0.46467E+00
  rms(prec ) = 0.46895E+00
  weight for this iteration     100.00

 eigenvalues of (default mixing * dielectric matrix)
  average eigenvalue GAMMA=   0.5617
  0.5617

 Free energy of the ion-electron system (eV)
  ---------------------------------------------------
  alpha Z        PSCENC =         0.18391265
  Ewald energy   TEWEN  =      -112.86085496
  -Hartree energ DENC   =      -721.89376782
  -exchange      EXHF   =         0.00000000
  -V(xc)+E(xc)   XCENC  =        33.24721997
  PAW double counting   =       790.19719908     -791.02304994
  entropy T*S    EENTRO =        -0.02019372
  eigenvalues    EBANDS =      -242.56379275
  atomic energy  EATOM  =      1042.59758728
  Solvation  Ediel_sol  =         0.00000000
  ---------------------------------------------------
  free energy    TOTEN  =        -2.13574022 eV

  energy without entropy =       -2.11554649  energy(sigma->0) =       -2.12564336


--------------------------------------------------------------------------------------------------------




--------------------------------------- Iteration      1(   7)  ---------------------------------------


    POTLOK:  cpu time      0.5931: real time      0.5975
    SETDIJ:  cpu time      0.4654: real time      0.4677
     EDDAV:  cpu time      0.1277: real time      0.1290
       DOS:  cpu time      0.0002: real time      0.0002
    CHARGE:  cpu time      0.0453: real time      0.0458
    MIXING:  cpu time      0.0104: real time      0.0105
    --------------------------------------------
      LOOP:  cpu time      1.2421: real time      1.2507

 eigenvalue-minimisations  :    46
 total energy-change (2. order) :-0.2523195E+00  (-0.4219404E-01)
 number of electron      10.0000005 magnetization       2.1468560
 augmentation part        5.1299284 magnetization      -0.2152342

 Broyden mixing:
  rms(total) = 0.70255E+00    rms(broyden)= 0.70250E+00
  rms(prec ) = 0.73639E+00
  weight for this iteration     100.00

 eigenvalues of (default mixing * dielectric matrix)
  average eigenvalue GAMMA=   0.3845
  0.3845  0.3845

 Free energy of the ion-electron system (eV)
  ---------------------------------------------------
  alpha Z        PSCENC =         0.18391265
  Ewald energy   TEWEN  =      -112.86085496
  -Hartree energ DENC   =      -721.65078162
  -exchange      EXHF   =         0.00000000
  -V(xc)+E(xc)   XCENC  =        33.25481549
  PAW double counting   =       786.82223366     -788.22859948
  entropy T*S    EENTRO =        -0.01244731
  eigenvalues    EBANDS =      -242.49392545
  atomic energy  EATOM  =      1042.59758728
  Solvation  Ediel_sol  =         0.00000000
  ---------------------------------------------------
  free energy    TOTEN  =        -2.38805974 eV

  energy without entropy =       -2.37561243  energy(sigma->0) =       -2.38183609


--------------------------------------------------------------------------------------------------------




--------------------------------------- Iteration      1(   8)  ---------------------------------------


    POTLOK:  cpu time      0.5628: real time      0.5669
    SETDIJ:  cpu time      0.4633: real time      0.4655
     EDDAV:  cpu time      0.1348: real time      0.1361
       DOS:  cpu time      0.0002: real time      0.0002
    CHARGE:  cpu time      0.0455: real time      0.0460
    MIXING:  cpu time      0.0131: real time      0.0132
    --------------------------------------------
      LOOP:  cpu time      1.2196: real time      1.2278

 eigenvalue-minimisations  :    48
 total energy-change (2. order) : 0.4096318E+00  (-0.5585461E-01)
 number of electron      10.0000006 magnetization       2.2325723
 augmentation part        4.6929719 magnetization       1.0016825

 Broyden mixing:
  rms(total) = 0.31622E+00    rms(broyden)= 0.31600E+00
  rms(prec ) = 0.32792E+00
  weight for this iteration     100.00

 eigenvalues of (default mixing * dielectric matrix)
  average eigenvalue GAMMA=   0.5812
  0.6865  0.6865  0.3708

 Free energy of the ion-electron system (eV)
  ---------------------------------------------------
  alpha Z        PSCENC =         0.18391265
  Ewald energy   TEWEN  =      -112.86085496
  -Hartree energ DENC   =      -728.50016072
  -exchange      EXHF   =         0.00000000
  -V(xc)+E(xc)   XCENC  =        33.91287329
  PAW double counting   =       796.30791152     -797.24511893
  entropy T*S    EENTRO =        -0.01477880
  eigenvalues    EBANDS =      -236.35979924
  atomic energy  EATOM  =      1042.59758728
  Solvation  Ediel_sol  =         0.00000000
  ---------------------------------------------------
  free energy    TOTEN  =        -1.97842790 eV

  energy without entropy =       -1.96364910  energy(sigma->0) =       -1.97103850


--------------------------------------------------------------------------------------------------------




--------------------------------------- Iteration      1(   9)  ---------------------------------------


    POTLOK:  cpu time      0.5595: real time      0.5637
    SETDIJ:  cpu time      0.4657: real time      0.4679
     EDDAV:  cpu time      0.1503: real time      0.1518
       DOS:  cpu time      0.0002: real time      0.0002
    CHARGE:  cpu time      0.0435: real time      0.0440
    MIXING:  cpu time      0.0107: real time      0.0108
    --------------------------------------------
      LOOP:  cpu time      1.2299: real time      1.2383

 eigenvalue-minimisations  :    56
 total energy-change (2. order) : 0.2930527E+00  (-0.1399032E-01)
 number of electron      10.0000007 magnetization       2.2852551
 augmentation part        4.6343627 magnetization       1.2006268

 Broyden mixing:
  rms(total) = 0.32480E+00    rms(broyden)= 0.32474E+00
  rms(prec ) = 0.34361E+00
  weight for this iteration     100.00

 eigenvalues of (default mixing * dielectric matrix)
  average eigenvalue GAMMA=   0.7183
  0.9924  0.9924  0.4442  0.4442

 Free energy of the ion-electron system (eV)
  ---------------------------------------------------
  alpha Z        PSCENC =         0.18391265
  Ewald energy   TEWEN  =      -112.86085496
  -Hartree energ DENC   =      -728.73999087
  -exchange      EXHF   =         0.00000000
  -V(xc)+E(xc)   XCENC  =        34.29111424
  PAW double counting   =       797.55119214     -798.89541703
  entropy T*S    EENTRO =        -0.00448139
  eigenvalues    EBANDS =      -235.80843722
  atomic energy  EATOM  =      1042.59758728
  Solvation  Ediel_sol  =         0.00000000
  ---------------------------------------------------
  free energy    TOTEN  =        -1.68537516 eV

  energy without entropy =       -1.68089377  energy(sigma->0) =       -1.68313446


--------------------------------------------------------------------------------------------------------




--------------------------------------- Iteration      1(  10)  ---------------------------------------


    POTLOK:  cpu time      0.5834: real time      0.5875
    SETDIJ:  cpu time      0.4637: real time      0.4661
     EDDAV:  cpu time      0.1498: real time      0.1512
       DOS:  cpu time      0.0002: real time      0.0002
    CHARGE:  cpu time      0.0440: real time      0.0445
    MIXING:  cpu time      0.0107: real time      0.0108
    --------------------------------------------
      LOOP:  cpu time      1.2518: real time      1.2602

 eigenvalue-minimisations  :    56
 total energy-change (2. order) :-0.2858791E+00  (-0.1855094E-01)
 number of electron      10.0000006 magnetization       2.3728854
 augmentation part        4.7683509 magnetization       0.9139077

 Broyden mixing:
  rms(total) = 0.10504E+00    rms(broyden)= 0.10499E+00
  rms(prec ) = 0.10905E+00
  weight for this iteration     100.00

 eigenvalues of (default mixing * dielectric matrix)
  average eigenvalue GAMMA=   0.8252
  1.1757  1.0323  1.0323  0.4430  0.4430

 Free energy of the ion-electron system (eV)
  ---------------------------------------------------
  alpha Z        PSCENC =         0.18391265
  Ewald energy   TEWEN  =      -112.86085496
  -Hartree energ DENC   =      -725.97963115
  -exchange      EXHF   =         0.00000000
  -V(xc)+E(xc)   XCENC  =        33.92946190
  PAW double counting   =       795.65329551     -797.51440033
  entropy T*S    EENTRO =        -0.02369391
  eigenvalues    EBANDS =      -237.95693124
  atomic energy  EATOM  =      1042.59758728
  Solvation  Ediel_sol  =         0.00000000
  ---------------------------------------------------
  free energy    TOTEN  =        -1.97125426 eV

  energy without entropy =       -1.94756035  energy(sigma->0) =       -1.95940730


--------------------------------------------------------------------------------------------------------




--------------------------------------- Iteration      1(  11)  ---------------------------------------


    POTLOK:  cpu time      0.5677: real time      0.5718
    SETDIJ:  cpu time      0.4663: real time      0.4687
     EDDAV:  cpu time      0.1500: real time      0.1517
       DOS:  cpu time      0.0002: real time      0.0002
    CHARGE:  cpu time      0.0500: real time      0.0505
    MIXING:  cpu time      0.0122: real time      0.0123
    --------------------------------------------
      LOOP:  cpu time      1.2464: real time      1.2551

 eigenvalue-minimisations  :    56
 total energy-change (2. order) :-0.1875351E+00  (-0.8333841E-02)
 number of electron      10.0000006 magnetization       2.4199429
 augmentation part        4.8548353 magnetization       0.7131487

 Broyden mixing:
  rms(total) = 0.13391E+00    rms(broyden)= 0.13382E+00
  rms(prec ) = 0.13988E+00
  weight for this iteration     100.00

 eigenvalues of (default mixing * dielectric matrix)
  average eigenvalue GAMMA=   0.8589
  1.7195  0.9666  0.9666  0.5976  0.4516  0.4516

 Free energy of the ion-electron system (eV)
  ---------------------------------------------------
  alpha Z        PSCENC =         0.18391265
  Ewald energy   TEWEN  =      -112.86085496
  -Hartree energ DENC   =      -724.76425901
  -exchange      EXHF   =         0.00000000
  -V(xc)+E(xc)   XCENC  =        33.74347455
  PAW double counting   =       796.41522035     -798.62834165
  entropy T*S    EENTRO =        -0.02792618
  eigenvalues    EBANDS =      -238.81760237
  atomic energy  EATOM  =      1042.59758728
  Solvation  Ediel_sol  =         0.00000000
  ---------------------------------------------------
  free energy    TOTEN  =        -2.15878934 eV

  energy without entropy =       -2.13086316  energy(sigma->0) =       -2.14482625


--------------------------------------------------------------------------------------------------------




--------------------------------------- Iteration      1(  12)  ---------------------------------------


    POTLOK:  cpu time      0.5720: real time      0.5762
    SETDIJ:  cpu time      0.4673: real time      0.4696
     EDDAV:  cpu time      0.1704: real time      0.1720
       DOS:  cpu time      0.0002: real time      0.0002
    CHARGE:  cpu time      0.0438: real time      0.0444
    MIXING:  cpu time      0.0112: real time      0.0113
    --------------------------------------------
      LOOP:  cpu time      1.2649: real time      1.2736

 eigenvalue-minimisations  :    68
 total energy-change (2. order) :-0.1612803E-02  (-0.1893578E-02)
 number of electron      10.0000006 magnetization       2.4215522
 augmentation part        4.9181982 magnetization       0.4895973

 Broyden mixing:
  rms(total) = 0.22241E+00    rms(broyden)= 0.22235E+00
  rms(prec ) = 0.23531E+00
  weight for this iteration     100.00

 eigenvalues of (default mixing * dielectric matrix)
  average eigenvalue GAMMA=   0.7389
  1.7070  0.9539  0.9539  0.4531  0.4531  0.5886  0.0623

 Free energy of the ion-electron system (eV)
  ---------------------------------------------------
  alpha Z        PSCENC =         0.18391265
  Ewald energy   TEWEN  =      -112.86085496
  -Hartree energ DENC   =      -725.26086954
  -exchange      EXHF   =         0.00000000
  -V(xc)+E(xc)   XCENC  =        33.79748134
  PAW double counting   =       797.42458864     -799.67963782
  entropy T*S    EENTRO =        -0.02752961
  eigenvalues    EBANDS =      -238.33508012
  atomic energy  EATOM  =      1042.59758728
  Solvation  Ediel_sol  =         0.00000000
  ---------------------------------------------------
  free energy    TOTEN  =        -2.16040214 eV

  energy without entropy =       -2.13287253  energy(sigma->0) =       -2.14663734


--------------------------------------------------------------------------------------------------------




--------------------------------------- Iteration      1(  13)  ---------------------------------------


    POTLOK:  cpu time      0.5682: real time      0.5724
    SETDIJ:  cpu time      0.4659: real time      0.4681
     EDDAV:  cpu time      0.1339: real time      0.1355
       DOS:  cpu time      0.0002: real time      0.0002
    CHARGE:  cpu time      0.0439: real time      0.0448
    MIXING:  cpu time      0.0113: real time      0.0114
    --------------------------------------------
      LOOP:  cpu time      1.2234: real time      1.2323

 eigenvalue-minimisations  :    48
 total energy-change (2. order) : 0.1760656E-01  (-0.8255746E-04)
 number of electron      10.0000006 magnetization       2.4615562
 augmentation part        4.9133625 magnetization       0.5418489

 Broyden mixing:
  rms(total) = 0.21346E+00    rms(broyden)= 0.21346E+00
  rms(prec ) = 0.22587E+00
  weight for this iteration     100.00

 eigenvalues of (default mixing * dielectric matrix)
  average eigenvalue GAMMA=   0.8638
  1.8565  0.8082  0.8082  0.9608  0.9608  0.6266  0.4445  0.4445

 Free energy of the ion-electron system (eV)
  ---------------------------------------------------
  alpha Z        PSCENC =         0.18391265
  Ewald energy   TEWEN  =      -112.86085496
  -Hartree energ DENC   =      -725.34988960
  -exchange      EXHF   =         0.00000000
  -V(xc)+E(xc)   XCENC  =        33.81861360
  PAW double counting   =       797.54000580     -799.78564725
  entropy T*S    EENTRO =        -0.02765402
  eigenvalues    EBANDS =      -238.25886908
  atomic energy  EATOM  =      1042.59758728
  Solvation  Ediel_sol  =         0.00000000
  ---------------------------------------------------
  free energy    TOTEN  =        -2.14279558 eV

  energy without entropy =       -2.11514156  energy(sigma->0) =       -2.12896857


--------------------------------------------------------------------------------------------------------




--------------------------------------- Iteration      1(  14)  ---------------------------------------


    POTLOK:  cpu time      0.5677: real time      0.5719
    SETDIJ:  cpu time      0.4657: real time      0.4680
     EDDAV:  cpu time      0.1740: real time      0.1758
       DOS:  cpu time      0.0002: real time      0.0002
    CHARGE:  cpu time      0.0444: real time      0.0449
    MIXING:  cpu time      0.0119: real time      0.0120
    --------------------------------------------
      LOOP:  cpu time      1.2639: real time      1.2728

 eigenvalue-minimisations  :    72
 total energy-change (2. order) :-0.5666361E-02  (-0.8178298E-03)
 number of electron      10.0000006 magnetization       2.5095932
 augmentation part        4.9210450 magnetization       0.5432947

 Broyden mixing:
  rms(total) = 0.21974E+00    rms(broyden)= 0.21974E+00
  rms(prec ) = 0.23252E+00
  weight for this iteration     100.00

 eigenvalues of (default mixing * dielectric matrix)
  average eigenvalue GAMMA=   0.9229
  1.8006  1.2038  1.2038  1.0502  1.0502  0.4503  0.4503  0.6171  0.4795

 Free energy of the ion-electron system (eV)
  ---------------------------------------------------
  alpha Z        PSCENC =         0.18391265
  Ewald energy   TEWEN  =      -112.86085496
  -Hartree energ DENC   =      -726.00111382
  -exchange      EXHF   =         0.00000000
  -V(xc)+E(xc)   XCENC  =        33.85304338
  PAW double counting   =       799.19323146     -801.35941716
  entropy T*S    EENTRO =        -0.02719717
  eigenvalues    EBANDS =      -237.72765360
  atomic energy  EATOM  =      1042.59758728
  Solvation  Ediel_sol  =         0.00000000
  ---------------------------------------------------
  free energy    TOTEN  =        -2.14846194 eV

  energy without entropy =       -2.12126478  energy(sigma->0) =       -2.13486336


--------------------------------------------------------------------------------------------------------




--------------------------------------- Iteration      1(  15)  ---------------------------------------


    POTLOK:  cpu time      0.6151: real time      0.6194
    SETDIJ:  cpu time      0.4660: real time      0.4685
     EDDAV:  cpu time      0.1514: real time      0.1530
       DOS:  cpu time      0.0002: real time      0.0002
    CHARGE:  cpu time      0.0440: real time      0.0444
    MIXING:  cpu time      0.0118: real time      0.0119
    --------------------------------------------
      LOOP:  cpu time      1.2884: real time      1.2975

 eigenvalue-minimisations  :    56
 total energy-change (2. order) :-0.1533961E-01  (-0.1081604E-02)
 number of electron      10.0000005 magnetization       2.5338271
 augmentation part        4.9436132 magnetization       0.4636664

 Broyden mixing:
  rms(total) = 0.24936E+00    rms(broyden)= 0.24935E+00
  rms(prec ) = 0.26414E+00
  weight for this iteration     100.00

 eigenvalues of (default mixing * dielectric matrix)
  average eigenvalue GAMMA=   0.8871
  1.7206  1.3463  1.3463  1.0734  1.0734  0.6247  0.4570  0.4570  0.3863  0.3863

 Free energy of the ion-electron system (eV)
  ---------------------------------------------------
  alpha Z        PSCENC =         0.18391265
  Ewald energy   TEWEN  =      -112.86085496
  -Hartree energ DENC   =      -726.91488573
  -exchange      EXHF   =         0.00000000
  -V(xc)+E(xc)   XCENC  =        33.89432935
  PAW double counting   =       800.94753801     -802.99412726
  entropy T*S    EENTRO =        -0.02559761
  eigenvalues    EBANDS =      -236.99170329
  atomic energy  EATOM  =      1042.59758728
  Solvation  Ediel_sol  =         0.00000000
  ---------------------------------------------------
  free energy    TOTEN  =        -2.16380156 eV

  energy without entropy =       -2.13820394  energy(sigma->0) =       -2.15100275


--------------------------------------------------------------------------------------------------------




--------------------------------------- Iteration      1(  16)  ---------------------------------------


    POTLOK:  cpu time      0.5686: real time      0.5732
    SETDIJ:  cpu time      0.4633: real time      0.4654
     EDDAV:  cpu time      0.1590: real time      0.1607
       DOS:  cpu time      0.0002: real time      0.0002
    CHARGE:  cpu time      0.0442: real time      0.0447
    MIXING:  cpu time      0.0118: real time      0.0119
    --------------------------------------------
      LOOP:  cpu time      1.2471: real time      1.2561

 eigenvalue-minimisations  :    64
 total energy-change (2. order) : 0.5478945E-02  (-0.3063889E-03)
 number of electron      10.0000005 magnetization       2.6404602
 augmentation part        4.9358673 magnetization       0.5785275

 Broyden mixing:
  rms(total) = 0.23125E+00    rms(broyden)= 0.23125E+00
  rms(prec ) = 0.24500E+00
  weight for this iteration     100.00

 eigenvalues of (default mixing * dielectric matrix)
  average eigenvalue GAMMA=   1.0553
  2.0487  2.0487  1.5356  1.2087  1.2087  0.7071  0.7071  0.4466  0.4466  0.6624
  0.5879

 Free energy of the ion-electron system (eV)
  ---------------------------------------------------
  alpha Z        PSCENC =         0.18391265
  Ewald energy   TEWEN  =      -112.86085496
  -Hartree energ DENC   =      -727.41968037
  -exchange      EXHF   =         0.00000000
  -V(xc)+E(xc)   XCENC  =        33.92637366
  PAW double counting   =       801.80969006     -803.78772725
  entropy T*S    EENTRO =        -0.02582540
  eigenvalues    EBANDS =      -236.58179828
  atomic energy  EATOM  =      1042.59758728
  Solvation  Ediel_sol  =         0.00000000
  ---------------------------------------------------
  free energy    TOTEN  =        -2.15832261 eV

  energy without entropy =       -2.13249721  energy(sigma->0) =       -2.14540991


--------------------------------------------------------------------------------------------------------




--------------------------------------- Iteration      1(  17)  ---------------------------------------


    POTLOK:  cpu time      0.5724: real time      0.5769
    SETDIJ:  cpu time      0.4636: real time      0.4658
     EDDAV:  cpu time      0.1538: real time      0.1553
       DOS:  cpu time      0.0002: real time      0.0002
    CHARGE:  cpu time      0.0429: real time      0.0436
    MIXING:  cpu time      0.0121: real time      0.0122
    --------------------------------------------
      LOOP:  cpu time      1.2449: real time      1.2538

 eigenvalue-minimisations  :    60
 total energy-change (2. order) :-0.4055492E-01  (-0.4404647E-02)
 number of electron      10.0000005 magnetization       2.7451931
 augmentation part        4.9201304 magnetization       0.6783295

 Broyden mixing:
  rms(total) = 0.18800E+00    rms(broyden)= 0.18798E+00
  rms(prec ) = 0.19909E+00
  weight for this iteration     100.00

 eigenvalues of (default mixing * dielectric matrix)
  average eigenvalue GAMMA=   1.1764
  2.8335  2.8335  1.6166  1.1280  1.1280  0.8587  0.8587  0.4469  0.4469  0.6781
  0.6781  0.6098

 Free energy of the ion-electron system (eV)
  ---------------------------------------------------
  alpha Z        PSCENC =         0.18391265
  Ewald energy   TEWEN  =      -112.86085496
  -Hartree energ DENC   =      -729.12796120
  -exchange      EXHF   =         0.00000000
  -V(xc)+E(xc)   XCENC  =        33.98622393
  PAW double counting   =       804.06234698     -805.79540785
  entropy T*S    EENTRO =        -0.02594239
  eigenvalues    EBANDS =      -235.21878197
  atomic energy  EATOM  =      1042.59758728
  Solvation  Ediel_sol  =         0.00000000
  ---------------------------------------------------
  free energy    TOTEN  =        -2.19887753 eV

  energy without entropy =       -2.17293514  energy(sigma->0) =       -2.18590634


--------------------------------------------------------------------------------------------------------




--------------------------------------- Iteration      1(  18)  ---------------------------------------


    POTLOK:  cpu time      0.5724: real time      0.5767
    SETDIJ:  cpu time      0.4638: real time      0.4663
     EDDAV:  cpu time      0.1500: real time      0.1514
       DOS:  cpu time      0.0002: real time      0.0002
    CHARGE:  cpu time      0.0435: real time      0.0440
    MIXING:  cpu time      0.0123: real time      0.0124
    --------------------------------------------
      LOOP:  cpu time      1.2421: real time      1.2509

 eigenvalue-minimisations  :    56
 total energy-change (2. order) :-0.7004444E-01  (-0.4402840E-02)
 number of electron      10.0000005 magnetization       2.7704299
 augmentation part        4.9336565 magnetization       0.6212826

 Broyden mixing:
  rms(total) = 0.20072E+00    rms(broyden)= 0.20069E+00
  rms(prec ) = 0.21248E+00
  weight for this iteration     100.00

 eigenvalues of (default mixing * dielectric matrix)
  average eigenvalue GAMMA=   1.1564
  3.0948  3.0948  1.6547  1.1148  1.1148  0.9153  0.9153  0.4468  0.4468  0.6362
  0.6362  0.6124  0.3502

 Free energy of the ion-electron system (eV)
  ---------------------------------------------------
  alpha Z        PSCENC =         0.18391265
  Ewald energy   TEWEN  =      -112.86085496
  -Hartree energ DENC   =      -730.27398613
  -exchange      EXHF   =         0.00000000
  -V(xc)+E(xc)   XCENC  =        33.99271427
  PAW double counting   =       805.04236614     -806.60242830
  entropy T*S    EENTRO =        -0.02430516
  eigenvalues    EBANDS =      -234.32392776
  atomic energy  EATOM  =      1042.59758728
  Solvation  Ediel_sol  =         0.00000000
  ---------------------------------------------------
  free energy    TOTEN  =        -2.26892198 eV

  energy without entropy =       -2.24461682  energy(sigma->0) =       -2.25676940


--------------------------------------------------------------------------------------------------------




--------------------------------------- Iteration      1(  19)  ---------------------------------------


    POTLOK:  cpu time      0.5658: real time      0.5696
    SETDIJ:  cpu time      0.4635: real time      0.4660
     EDDAV:  cpu time      0.1775: real time      0.1792
       DOS:  cpu time      0.0002: real time      0.0002
    CHARGE:  cpu time      0.0447: real time      0.0452
    MIXING:  cpu time      0.0126: real time      0.0127
    --------------------------------------------
      LOOP:  cpu time      1.2643: real time      1.2729

 eigenvalue-minimisations  :    72
 total energy-change (2. order) :-0.1460243E-01  (-0.6173830E-03)
 number of electron      10.0000005 magnetization       2.7651573
 augmentation part        4.9385111 magnetization       0.5886704

 Broyden mixing:
  rms(total) = 0.20679E+00    rms(broyden)= 0.20678E+00
  rms(prec ) = 0.21897E+00
  weight for this iteration     100.00

 eigenvalues of (default mixing * dielectric matrix)
  average eigenvalue GAMMA=   1.1339
  2.9656  2.9656  1.6892  1.1664  1.1664  0.7129  0.8717  0.8717  0.4466  0.4466
  0.6888  0.6888  0.6341  0.5600

 Free energy of the ion-electron system (eV)
  ---------------------------------------------------
  alpha Z        PSCENC =         0.18391265
  Ewald energy   TEWEN  =      -112.86085496
  -Hartree energ DENC   =      -730.51212767
  -exchange      EXHF   =         0.00000000
  -V(xc)+E(xc)   XCENC  =        33.99476859
  PAW double counting   =       805.19659660     -806.71761192
  entropy T*S    EENTRO =        -0.02365208
  eigenvalues    EBANDS =      -234.14214288
  atomic energy  EATOM  =      1042.59758728
  Solvation  Ediel_sol  =         0.00000000
  ---------------------------------------------------
  free energy    TOTEN  =        -2.28352441 eV

  energy without entropy =       -2.25987233  energy(sigma->0) =       -2.27169837


--------------------------------------------------------------------------------------------------------




--------------------------------------- Iteration      1(  20)  ---------------------------------------


    POTLOK:  cpu time      0.5731: real time      0.5776
    SETDIJ:  cpu time      0.4627: real time      0.4649
     EDDAV:  cpu time      0.1495: real time      0.1510
       DOS:  cpu time      0.0002: real time      0.0002
    CHARGE:  cpu time      0.0440: real time      0.0446
    MIXING:  cpu time      0.0129: real time      0.0130
    --------------------------------------------
      LOOP:  cpu time      1.2425: real time      1.2514

 eigenvalue-minimisations  :    56
 total energy-change (2. order) : 0.9361656E-02  (-0.1054622E-02)
 number of electron      10.0000005 magnetization       2.8020844
 augmentation part        4.9328936 magnetization       0.6435315

 Broyden mixing:
  rms(total) = 0.19764E+00    rms(broyden)= 0.19764E+00
  rms(prec ) = 0.20921E+00
  weight for this iteration     100.00

 eigenvalues of (default mixing * dielectric matrix)
  average eigenvalue GAMMA=   1.2007
  3.2180  3.2180  1.5287  1.1943  1.1943  1.2534  1.1307  1.1307  0.6682  0.6682
  0.4466  0.4466  0.6527  0.6527  0.6065

 Free energy of the ion-electron system (eV)
  ---------------------------------------------------
  alpha Z        PSCENC =         0.18391265
  Ewald energy   TEWEN  =      -112.86085496
  -Hartree energ DENC   =      -730.52186840
  -exchange      EXHF   =         0.00000000
  -V(xc)+E(xc)   XCENC  =        34.00444374
  PAW double counting   =       805.78948992     -807.32028794
  entropy T*S    EENTRO =        -0.02412929
  eigenvalues    EBANDS =      -234.12245575
  atomic energy  EATOM  =      1042.59758728
  Solvation  Ediel_sol  =         0.00000000
  ---------------------------------------------------
  free energy    TOTEN  =        -2.27416275 eV

  energy without entropy =       -2.25003347  energy(sigma->0) =       -2.26209811


--------------------------------------------------------------------------------------------------------




--------------------------------------- Iteration      1(  21)  ---------------------------------------


    POTLOK:  cpu time      0.5866: real time      0.5910
    SETDIJ:  cpu time      0.4648: real time      0.4670
     EDDAV:  cpu time      0.1497: real time      0.1538
       DOS:  cpu time      0.0002: real time      0.0002
    CHARGE:  cpu time      0.0435: real time      0.0439
    MIXING:  cpu time      0.0136: real time      0.0137
    --------------------------------------------
      LOOP:  cpu time      1.2584: real time      1.2695

 eigenvalue-minimisations  :    56
 total energy-change (2. order) :-0.1760077E-01  (-0.5661599E-03)
 number of electron      10.0000005 magnetization       2.8827518
 augmentation part        4.9419778 magnetization       0.6755214

 Broyden mixing:
  rms(total) = 0.20755E+00    rms(broyden)= 0.20754E+00
  rms(prec ) = 0.21979E+00
  weight for this iteration     100.00

 eigenvalues of (default mixing * dielectric matrix)
  average eigenvalue GAMMA=   1.2749
  3.7631  3.7631  1.9878  1.2282  1.2282  1.1666  1.1666  1.1839  0.7271  0.7271
  0.4467  0.4467  0.6957  0.6957  0.6196  0.5525

 Free energy of the ion-electron system (eV)
  ---------------------------------------------------
  alpha Z        PSCENC =         0.18391265
  Ewald energy   TEWEN  =      -112.86085496
  -Hartree energ DENC   =      -731.07975771
  -exchange      EXHF   =         0.00000000
  -V(xc)+E(xc)   XCENC  =        34.02197593
  PAW double counting   =       806.25489560     -807.69158838
  entropy T*S    EENTRO =        -0.02288778
  eigenvalues    EBANDS =      -233.69504614
  atomic energy  EATOM  =      1042.59758728
  Solvation  Ediel_sol  =         0.00000000
  ---------------------------------------------------
  free energy    TOTEN  =        -2.29176352 eV

  energy without entropy =       -2.26887574  energy(sigma->0) =       -2.28031963


--------------------------------------------------------------------------------------------------------




--------------------------------------- Iteration      1(  22)  ---------------------------------------


    POTLOK:  cpu time      0.5632: real time      0.5673
    SETDIJ:  cpu time      0.4642: real time      0.4665
     EDDAV:  cpu time      0.1548: real time      0.1563
       DOS:  cpu time      0.0002: real time      0.0002
    CHARGE:  cpu time      0.0433: real time      0.0439
    MIXING:  cpu time      0.0132: real time      0.0133
    --------------------------------------------
      LOOP:  cpu time      1.2389: real time      1.2474

 eigenvalue-minimisations  :    60
 total energy-change (2. order) :-0.1909311E-01  (-0.2344483E-02)
 number of electron      10.0000005 magnetization       3.0124926
 augmentation part        4.9349729 magnetization       0.7798138

 Broyden mixing:
  rms(total) = 0.18231E+00    rms(broyden)= 0.18229E+00
  rms(prec ) = 0.19315E+00
  weight for this iteration     100.00

 eigenvalues of (default mixing * dielectric matrix)
  average eigenvalue GAMMA=   1.3428
  4.4128  4.4128  2.1400  1.2598  1.2598  1.1368  1.1368  1.0815  1.0815  0.7287
  0.7287  0.4466  0.4466  0.7407  0.6610  0.5771  0.5771

 Free energy of the ion-electron system (eV)
  ---------------------------------------------------
  alpha Z        PSCENC =         0.18391265
  Ewald energy   TEWEN  =      -112.86085496
  -Hartree energ DENC   =      -732.44776857
  -exchange      EXHF   =         0.00000000
  -V(xc)+E(xc)   XCENC  =        34.08716007
  PAW double counting   =       807.70861872     -808.94930909
  entropy T*S    EENTRO =        -0.02240308
  eigenvalues    EBANDS =      -232.60779965
  atomic energy  EATOM  =      1042.59758728
  Solvation  Ediel_sol  =         0.00000000
  ---------------------------------------------------
  free energy    TOTEN  =        -2.31085663 eV

  energy without entropy =       -2.28845355  energy(sigma->0) =       -2.29965509


--------------------------------------------------------------------------------------------------------




--------------------------------------- Iteration      1(  23)  ---------------------------------------


    POTLOK:  cpu time      0.5676: real time      0.5716
    SETDIJ:  cpu time      0.4639: real time      0.4661
     EDDAV:  cpu time      0.1539: real time      0.1553
       DOS:  cpu time      0.0004: real time      0.0004
    CHARGE:  cpu time      0.0437: real time      0.0442
    MIXING:  cpu time      0.0135: real time      0.0136
    --------------------------------------------
      LOOP:  cpu time      1.2429: real time      1.2512

 eigenvalue-minimisations  :    60
 total energy-change (2. order) :-0.1979125E-01  (-0.7092884E-02)
 number of electron      10.0000005 magnetization       2.9937322
 augmentation part        4.8900468 magnetization       0.8192324

 Broyden mixing:
  rms(total) = 0.87737E-01    rms(broyden)= 0.87659E-01
  rms(prec ) = 0.92540E-01
  weight for this iteration     100.00

 eigenvalues of (default mixing * dielectric matrix)
  average eigenvalue GAMMA=   1.3692
  4.7298  4.7298  2.1179  1.2890  1.2890  1.1595  1.1595  1.2321  1.0135  1.0135
  0.7181  0.7181  0.4466  0.4466  0.6953  0.6953  0.5960  0.5960

 Free energy of the ion-electron system (eV)
  ---------------------------------------------------
  alpha Z        PSCENC =         0.18391265
  Ewald energy   TEWEN  =      -112.86085496
  -Hartree energ DENC   =      -734.89744212
  -exchange      EXHF   =         0.00000000
  -V(xc)+E(xc)   XCENC  =        34.21154861
  PAW double counting   =       810.59151791     -811.51417206
  entropy T*S    EENTRO =        -0.02449875
  eigenvalues    EBANDS =      -230.61824644
  atomic energy  EATOM  =      1042.59758728
  Solvation  Ediel_sol  =         0.00000000
  ---------------------------------------------------
  free energy    TOTEN  =        -2.33064789 eV

  energy without entropy =       -2.30614914  energy(sigma->0) =       -2.31839851


--------------------------------------------------------------------------------------------------------




--------------------------------------- Iteration      1(  24)  ---------------------------------------


    POTLOK:  cpu time      0.5805: real time      0.5849
    SETDIJ:  cpu time      0.4642: real time      0.4664
     EDDAV:  cpu time      0.1517: real time      0.1531
       DOS:  cpu time      0.0002: real time      0.0002
    CHARGE:  cpu time      0.0436: real time      0.0441
    MIXING:  cpu time      0.0140: real time      0.0141
    --------------------------------------------
      LOOP:  cpu time      1.2542: real time      1.2628

 eigenvalue-minimisations  :    58
 total energy-change (2. order) :-0.4956952E-04  (-0.6574364E-03)
 number of electron      10.0000005 magnetization       3.1871014
 augmentation part        4.9126733 magnetization       0.9589922

 Broyden mixing:
  rms(total) = 0.13133E+00    rms(broyden)= 0.13133E+00
  rms(prec ) = 0.13897E+00
  weight for this iteration     100.00

 eigenvalues of (default mixing * dielectric matrix)
  average eigenvalue GAMMA=   1.4573
  5.6023  5.6023  2.1452  1.7499  1.3589  1.3589  1.1573  1.1573  1.0309  1.0309
  0.7205  0.7205  0.4466  0.4466  0.6809  0.6809  0.6066  0.5958  0.5958

 Free energy of the ion-electron system (eV)
  ---------------------------------------------------
  alpha Z        PSCENC =         0.18391265
  Ewald energy   TEWEN  =      -112.86085496
  -Hartree energ DENC   =      -734.21908869
  -exchange      EXHF   =         0.00000000
  -V(xc)+E(xc)   XCENC  =        34.17031303
  PAW double counting   =       809.58783529     -810.61908476
  entropy T*S    EENTRO =        -0.02295001
  eigenvalues    EBANDS =      -231.14836729
  atomic energy  EATOM  =      1042.59758728
  Solvation  Ediel_sol  =         0.00000000
  ---------------------------------------------------
  free energy    TOTEN  =        -2.33069746 eV

  energy without entropy =       -2.30774745  energy(sigma->0) =       -2.31922245


--------------------------------------------------------------------------------------------------------




--------------------------------------- Iteration      1(  25)  ---------------------------------------


    POTLOK:  cpu time      0.5678: real time      0.5722
    SETDIJ:  cpu time      0.4644: real time      0.4670
     EDDAV:  cpu time      0.1649: real time      0.1666
       DOS:  cpu time      0.0003: real time      0.0003
    CHARGE:  cpu time      0.0439: real time      0.0447
    MIXING:  cpu time      0.0158: real time      0.0159
    --------------------------------------------
      LOOP:  cpu time      1.2571: real time      1.2667

 eigenvalue-minimisations  :    64
 total energy-change (2. order) :-0.5812243E-01  (-0.9640161E-02)
 number of electron      10.0000004 magnetization       3.2402343
 augmentation part        4.9343492 magnetization       0.8450948

 Broyden mixing:
  rms(total) = 0.14637E+00    rms(broyden)= 0.14625E+00
  rms(prec ) = 0.15500E+00
  weight for this iteration     100.00

 eigenvalues of (default mixing * dielectric matrix)
  average eigenvalue GAMMA=   1.4914
  6.3020  6.3020  2.1603  1.4490  1.4490  1.4515  1.4515  1.1796  1.1796  0.8995
  0.7130  0.7130  0.4466  0.4466  0.6841  0.6498  0.6498  0.5745  0.5633  0.5633

 Free energy of the ion-electron system (eV)
  ---------------------------------------------------
  alpha Z        PSCENC =         0.18391265
  Ewald energy   TEWEN  =      -112.86085496
  -Hartree energ DENC   =      -736.68927907
  -exchange      EXHF   =         0.00000000
  -V(xc)+E(xc)   XCENC  =        34.28719398
  PAW double counting   =       812.41541316     -813.11248495
  entropy T*S    EENTRO =        -0.01752913
  eigenvalues    EBANDS =      -229.19277884
  atomic energy  EATOM  =      1042.59758728
  Solvation  Ediel_sol  =         0.00000000
  ---------------------------------------------------
  free energy    TOTEN  =        -2.38881989 eV

  energy without entropy =       -2.37129076  energy(sigma->0) =       -2.38005533


--------------------------------------------------------------------------------------------------------




--------------------------------------- Iteration      1(  26)  ---------------------------------------


    POTLOK:  cpu time      0.5785: real time      0.5828
    SETDIJ:  cpu time      0.4633: real time      0.4660
     EDDAV:  cpu time      0.1715: real time      0.1732
       DOS:  cpu time      0.0003: real time      0.0003
    CHARGE:  cpu time      0.0434: real time      0.0440
    MIXING:  cpu time      0.0142: real time      0.0144
    --------------------------------------------
      LOOP:  cpu time      1.2713: real time      1.2807

 eigenvalue-minimisations  :    70
 total energy-change (2. order) :-0.1273269E-01  (-0.9703734E-03)
 number of electron      10.0000004 magnetization       3.2818627
 augmentation part        4.9282058 magnetization       0.8710677

 Broyden mixing:
  rms(total) = 0.12885E+00    rms(broyden)= 0.12883E+00
  rms(prec ) = 0.13654E+00
  weight for this iteration     100.00

 eigenvalues of (default mixing * dielectric matrix)
  average eigenvalue GAMMA=   1.5064
  6.6860  6.6860  2.1740  1.5020  1.5020  1.4820  1.4820  1.1793  1.1793  1.0935
  0.7062  0.7062  0.6284  0.6284  0.4466  0.4466  0.6854  0.6854  0.6215  0.5564
  0.5564

 Free energy of the ion-electron system (eV)
  ---------------------------------------------------
  alpha Z        PSCENC =         0.18391265
  Ewald energy   TEWEN  =      -112.86085496
  -Hartree energ DENC   =      -737.54728171
  -exchange      EXHF   =         0.00000000
  -V(xc)+E(xc)   XCENC  =        34.32519868
  PAW double counting   =       814.03683782     -814.61433457
  entropy T*S    EENTRO =        -0.01715655
  eigenvalues    EBANDS =      -228.50546122
  atomic energy  EATOM  =      1042.59758728
  Solvation  Ediel_sol  =         0.00000000
  ---------------------------------------------------
  free energy    TOTEN  =        -2.40155258 eV

  energy without entropy =       -2.38439604  energy(sigma->0) =       -2.39297431


--------------------------------------------------------------------------------------------------------




--------------------------------------- Iteration      1(  27)  ---------------------------------------


    POTLOK:  cpu time      0.5963: real time      0.6011
    SETDIJ:  cpu time      0.4633: real time      0.4658
     EDDAV:  cpu time      0.1645: real time      0.1662
       DOS:  cpu time      0.0003: real time      0.0004
    CHARGE:  cpu time      0.0439: real time      0.0445
    MIXING:  cpu time      0.0147: real time      0.0148
    --------------------------------------------
      LOOP:  cpu time      1.2831: real time      1.2928

 eigenvalue-minimisations  :    64
 total energy-change (2. order) :-0.7228352E-02  (-0.3823088E-03)
 number of electron      10.0000004 magnetization       3.3990764
 augmentation part        4.9304751 magnetization       0.9584200

 Broyden mixing:
  rms(total) = 0.12827E+00    rms(broyden)= 0.12826E+00
  rms(prec ) = 0.13597E+00
  weight for this iteration     100.00

 eigenvalues of (default mixing * dielectric matrix)
  average eigenvalue GAMMA=   1.5484
  7.2388  7.2388  2.1848  1.5219  1.5219  1.6295  1.6295  1.1708  1.1708  0.8623
  0.8623  0.9245  0.7186  0.7186  0.4466  0.4466  0.7361  0.6070  0.6070  0.6279
  0.6279  0.5735

 Free energy of the ion-electron system (eV)
  ---------------------------------------------------
  alpha Z        PSCENC =         0.18391265
  Ewald energy   TEWEN  =      -112.86085496
  -Hartree energ DENC   =      -738.09486888
  -exchange      EXHF   =         0.00000000
  -V(xc)+E(xc)   XCENC  =        34.35427290
  PAW double counting   =       815.11288859     -815.61497870
  entropy T*S    EENTRO =        -0.01596300
  eigenvalues    EBANDS =      -228.07077681
  atomic energy  EATOM  =      1042.59758728
  Solvation  Ediel_sol  =         0.00000000
  ---------------------------------------------------
  free energy    TOTEN  =        -2.40878094 eV

  energy without entropy =       -2.39281794  energy(sigma->0) =       -2.40079944


--------------------------------------------------------------------------------------------------------




--------------------------------------- Iteration      1(  28)  ---------------------------------------


    POTLOK:  cpu time      0.5854: real time      0.5899
    SETDIJ:  cpu time      0.4635: real time      0.4658
     EDDAV:  cpu time      0.1699: real time      0.1716
       DOS:  cpu time      0.0003: real time      0.0003
    CHARGE:  cpu time      0.0436: real time      0.0442
    MIXING:  cpu time      0.0148: real time      0.0150
    --------------------------------------------
      LOOP:  cpu time      1.2776: real time      1.2868

 eigenvalue-minimisations  :    68
 total energy-change (2. order) :-0.2119875E-01  (-0.3854851E-02)
 number of electron      10.0000004 magnetization       3.4916937
 augmentation part        4.9211047 magnetization       1.0103884

 Broyden mixing:
  rms(total) = 0.98528E-01    rms(broyden)= 0.98467E-01
  rms(prec ) = 0.10433E+00
  weight for this iteration     100.00

 eigenvalues of (default mixing * dielectric matrix)
  average eigenvalue GAMMA=   1.6256
  8.0250  8.0250  2.1888  1.9276  1.9276  1.4058  1.4058  1.1329  1.1329  1.2481
  1.2481  1.0161  0.7273  0.7273  0.4466  0.4466  0.6204  0.6204  0.6575  0.6575
  0.6409  0.5804  0.5804

 Free energy of the ion-electron system (eV)
  ---------------------------------------------------
  alpha Z        PSCENC =         0.18391265
  Ewald energy   TEWEN  =      -112.86085496
  -Hartree energ DENC   =      -739.84179700
  -exchange      EXHF   =         0.00000000
  -V(xc)+E(xc)   XCENC  =        34.44865770
  PAW double counting   =       817.86733342     -818.13662012
  entropy T*S    EENTRO =        -0.01464495
  eigenvalues    EBANDS =      -226.67355370
  atomic energy  EATOM  =      1042.59758728
  Solvation  Ediel_sol  =         0.00000000
  ---------------------------------------------------
  free energy    TOTEN  =        -2.42997969 eV

  energy without entropy =       -2.41533474  energy(sigma->0) =       -2.42265721


--------------------------------------------------------------------------------------------------------




--------------------------------------- Iteration      1(  29)  ---------------------------------------


    POTLOK:  cpu time      0.5806: real time      0.5851
    SETDIJ:  cpu time      0.4636: real time      0.4661
     EDDAV:  cpu time      0.1700: real time      0.1715
       DOS:  cpu time      0.0003: real time      0.0003
    CHARGE:  cpu time      0.0438: real time      0.0444
    MIXING:  cpu time      0.0152: real time      0.0153
    --------------------------------------------
      LOOP:  cpu time      1.2735: real time      1.2827

 eigenvalue-minimisations  :    68
 total energy-change (2. order) :-0.1822222E-01  (-0.1947112E-02)
 number of electron      10.0000004 magnetization       3.5648030
 augmentation part        4.9228288 magnetization       1.0249231

 Broyden mixing:
  rms(total) = 0.92095E-01    rms(broyden)= 0.92038E-01
  rms(prec ) = 0.97565E-01
  weight for this iteration     100.00

 eigenvalues of (default mixing * dielectric matrix)
  average eigenvalue GAMMA=   1.6663
  8.7014  8.7014  2.1908  2.2088  2.2088  1.4032  1.4032  1.3360  1.3360  1.1686
  1.1686  0.9209  0.7168  0.7168  0.4466  0.4466  0.6454  0.6454  0.6627  0.6518
  0.6518  0.5780  0.5404  0.5404

 Free energy of the ion-electron system (eV)
  ---------------------------------------------------
  alpha Z        PSCENC =         0.18391265
  Ewald energy   TEWEN  =      -112.86085496
  -Hartree energ DENC   =      -740.99052827
  -exchange      EXHF   =         0.00000000
  -V(xc)+E(xc)   XCENC  =        34.50887491
  PAW double counting   =       819.98129855     -820.10152646
  entropy T*S    EENTRO =        -0.01198300
  eigenvalues    EBANDS =      -225.75498261
  atomic energy  EATOM  =      1042.59758728
  Solvation  Ediel_sol  =         0.00000000
  ---------------------------------------------------
  free energy    TOTEN  =        -2.44820191 eV

  energy without entropy =       -2.43621891  energy(sigma->0) =       -2.44221041


--------------------------------------------------------------------------------------------------------




--------------------------------------- Iteration      1(  30)  ---------------------------------------


    POTLOK:  cpu time      0.5711: real time      0.5752
    SETDIJ:  cpu time      0.4636: real time      0.4661
     EDDAV:  cpu time      0.1678: real time      0.1693
       DOS:  cpu time      0.0003: real time      0.0003
    CHARGE:  cpu time      0.0434: real time      0.0440
    MIXING:  cpu time      0.0154: real time      0.0155
    --------------------------------------------
      LOOP:  cpu time      1.2616: real time      1.2703

 eigenvalue-minimisations  :    64
 total energy-change (2. order) :-0.1457329E-01  (-0.1419711E-02)
 number of electron      10.0000004 magnetization       3.6015854
 augmentation part        4.9214480 magnetization       1.0227934

 Broyden mixing:
  rms(total) = 0.81482E-01    rms(broyden)= 0.81437E-01
  rms(prec ) = 0.86343E-01
  weight for this iteration     100.00

 eigenvalues of (default mixing * dielectric matrix)
  average eigenvalue GAMMA=   1.6195
  8.8180  8.8180  2.1912  2.2552  2.2552  1.4031  1.4031  1.3371  1.3371  1.1717
  1.1717  0.9088  0.7131  0.7131  0.4466  0.4466  0.6411  0.6411  0.6741  0.6493
  0.6493  0.5770  0.5162  0.5162  0.2346

 Free energy of the ion-electron system (eV)
  ---------------------------------------------------
  alpha Z        PSCENC =         0.18391265
  Ewald energy   TEWEN  =      -112.86085496
  -Hartree energ DENC   =      -741.97011033
  -exchange      EXHF   =         0.00000000
  -V(xc)+E(xc)   XCENC  =        34.56303645
  PAW double counting   =       821.78164221     -821.77031642
  entropy T*S    EENTRO =        -0.01012827
  eigenvalues    EBANDS =      -224.97754382
  atomic energy  EATOM  =      1042.59758728
  Solvation  Ediel_sol  =         0.00000000
  ---------------------------------------------------
  free energy    TOTEN  =        -2.46277520 eV

  energy without entropy =       -2.45264693  energy(sigma->0) =       -2.45771107


--------------------------------------------------------------------------------------------------------




--------------------------------------- Iteration      1(  31)  ---------------------------------------


    POTLOK:  cpu time      0.5816: real time      0.5859
    SETDIJ:  cpu time      0.4623: real time      0.4645
     EDDAV:  cpu time      0.1433: real time      0.1446
       DOS:  cpu time      0.0003: real time      0.0003
    CHARGE:  cpu time      0.0435: real time      0.0440
    MIXING:  cpu time      0.0155: real time      0.0156
    --------------------------------------------
      LOOP:  cpu time      1.2464: real time      1.2550

 eigenvalue-minimisations  :    56
 total energy-change (2. order) :-0.6657842E-02  (-0.3790155E-03)
 number of electron      10.0000004 magnetization       3.7022009
 augmentation part        4.9205709 magnetization       1.1036937

 Broyden mixing:
  rms(total) = 0.75778E-01    rms(broyden)= 0.75762E-01
  rms(prec ) = 0.80332E-01
  weight for this iteration     100.00

 eigenvalues of (default mixing * dielectric matrix)
  average eigenvalue GAMMA=   1.7355
  9.6735  9.6735  2.1924  2.5795  2.5795  1.4047  1.4047  1.2627  1.2627  1.2910
  1.2910  1.0846  1.0846  0.7367  0.7367  0.8965  0.4466  0.4466  0.6646  0.6646
  0.6543  0.6543  0.6461  0.5832  0.6041  0.6041

 Free energy of the ion-electron system (eV)
  ---------------------------------------------------
  alpha Z        PSCENC =         0.18391265
  Ewald energy   TEWEN  =      -112.86085496
  -Hartree energ DENC   =      -742.47553053
  -exchange      EXHF   =         0.00000000
  -V(xc)+E(xc)   XCENC  =        34.59110044
  PAW double counting   =       822.71479643     -822.63439730
  entropy T*S    EENTRO =        -0.00913735
  eigenvalues    EBANDS =      -224.57690970
  atomic energy  EATOM  =      1042.59758728
  Solvation  Ediel_sol  =         0.00000000
  ---------------------------------------------------
  free energy    TOTEN  =        -2.46943304 eV

  energy without entropy =       -2.46029570  energy(sigma->0) =       -2.46486437


--------------------------------------------------------------------------------------------------------




--------------------------------------- Iteration      1(  32)  ---------------------------------------


    POTLOK:  cpu time      0.5882: real time      0.5924
    SETDIJ:  cpu time      0.4621: real time      0.4644
     EDDAV:  cpu time      0.1542: real time      0.1557
       DOS:  cpu time      0.0003: real time      0.0003
    CHARGE:  cpu time      0.0434: real time      0.0440
    MIXING:  cpu time      0.0157: real time      0.0158
    --------------------------------------------
      LOOP:  cpu time      1.2639: real time      1.2725

 eigenvalue-minimisations  :    60
 total energy-change (2. order) :-0.1344801E-01  (-0.2657573E-02)
 number of electron      10.0000003 magnetization       3.7225707
 augmentation part        4.9201969 magnetization       1.0630033

 Broyden mixing:
  rms(total) = 0.64340E-01    rms(broyden)= 0.64259E-01
  rms(prec ) = 0.68126E-01
  weight for this iteration     100.00

 eigenvalues of (default mixing * dielectric matrix)
  average eigenvalue GAMMA=   1.7572
 10.0747 10.0747  2.9278  2.9278  2.1927  1.4500  1.4500  1.3072  1.3072  1.3078
  1.3078  1.1370  1.1370  0.9401  0.7328  0.7328  0.4466  0.4466  0.6722  0.6722
  0.6091  0.6091  0.6481  0.6481  0.5818  0.6286  0.4731

 Free energy of the ion-electron system (eV)
  ---------------------------------------------------
  alpha Z        PSCENC =         0.18391265
  Ewald energy   TEWEN  =      -112.86085496
  -Hartree energ DENC   =      -743.85856214
  -exchange      EXHF   =         0.00000000
  -V(xc)+E(xc)   XCENC  =        34.67484132
  PAW double counting   =       824.87167816     -824.60443645
  entropy T*S    EENTRO =        -0.00557850
  eigenvalues    EBANDS =      -223.48146842
  atomic energy  EATOM  =      1042.59758728
  Solvation  Ediel_sol  =         0.00000000
  ---------------------------------------------------
  free energy    TOTEN  =        -2.48288106 eV

  energy without entropy =       -2.47730256  energy(sigma->0) =       -2.48009181


--------------------------------------------------------------------------------------------------------




--------------------------------------- Iteration      1(  33)  ---------------------------------------


    POTLOK:  cpu time      0.5881: real time      0.5921
    SETDIJ:  cpu time      0.4622: real time      0.4645
     EDDAV:  cpu time      0.1592: real time      0.1607
       DOS:  cpu time      0.0003: real time      0.0003
    CHARGE:  cpu time      0.0440: real time      0.0446
    MIXING:  cpu time      0.0160: real time      0.0161
    --------------------------------------------
      LOOP:  cpu time      1.2698: real time      1.2783

 eigenvalue-minimisations  :    64
 total energy-change (2. order) :-0.1248061E-02  (-0.1795657E-03)
 number of electron      10.0000003 magnetization       4.0527057
 augmentation part        4.9193270 magnetization       1.3820012

 Broyden mixing:
  rms(total) = 0.60127E-01    rms(broyden)= 0.60113E-01
  rms(prec ) = 0.63747E-01
  weight for this iteration     100.00

 eigenvalues of (default mixing * dielectric matrix)
  average eigenvalue GAMMA=   1.9064
 11.8517 11.8517  3.5597  3.5597  2.1930  1.4340  1.4340  1.5360  1.5360  1.1719
  1.1719  1.2656  1.2656  0.7323  0.7323  0.8726  0.4466  0.4466  0.6916  0.6916
  0.7441  0.6112  0.6112  0.6350  0.6350  0.5865  0.5554  0.5554

 Free energy of the ion-electron system (eV)
  ---------------------------------------------------
  alpha Z        PSCENC =         0.18391265
  Ewald energy   TEWEN  =      -112.86085496
  -Hartree energ DENC   =      -744.13935612
  -exchange      EXHF   =         0.00000000
  -V(xc)+E(xc)   XCENC  =        34.69111263
  PAW double counting   =       825.51389731     -825.21024159
  entropy T*S    EENTRO =        -0.00490997
  eigenvalues    EBANDS =      -223.25527634
  atomic energy  EATOM  =      1042.59758728
  Solvation  Ediel_sol  =         0.00000000
  ---------------------------------------------------
  free energy    TOTEN  =        -2.48412912 eV

  energy without entropy =       -2.47921915  energy(sigma->0) =       -2.48167413


--------------------------------------------------------------------------------------------------------




--------------------------------------- Iteration      1(  34)  ---------------------------------------


    POTLOK:  cpu time      0.5667: real time      0.5710
    SETDIJ:  cpu time      0.4623: real time      0.4648
     EDDAV:  cpu time      0.1342: real time      0.1355
       DOS:  cpu time      0.0002: real time      0.0002
    CHARGE:  cpu time      0.0437: real time      0.0444
    MIXING:  cpu time      0.0166: real time      0.0168
    --------------------------------------------
      LOOP:  cpu time      1.2237: real time      1.2326

 eigenvalue-minimisations  :    48
 total energy-change (2. order) : 0.2485532E+00  (-0.1744816E+00)
 number of electron      10.0000003 magnetization       4.0384695
 augmentation part        4.8901727 magnetization       1.2737170

 Broyden mixing:
  rms(total) = 0.53731E-01    rms(broyden)= 0.53100E-01
  rms(prec ) = 0.54646E-01
  weight for this iteration     100.00

 eigenvalues of (default mixing * dielectric matrix)
  average eigenvalue GAMMA=   1.8517
 11.6598 11.6598  3.7396  3.7396  2.1930  1.4347  1.4347  1.4194  1.4194  1.3419
  1.3419  1.1656  1.1656  0.9507  0.7367  0.7367  0.4466  0.4466  0.6891  0.6891
  0.7061  0.7061  0.6483  0.6278  0.6278  0.5874  0.5926  0.5926  0.2001

 Free energy of the ion-electron system (eV)
  ---------------------------------------------------
  alpha Z        PSCENC =         0.18391265
  Ewald energy   TEWEN  =      -112.86085496
  -Hartree energ DENC   =      -748.69678566
  -exchange      EXHF   =         0.00000000
  -V(xc)+E(xc)   XCENC  =        35.21394363
  PAW double counting   =       833.01121277     -832.09676500
  entropy T*S    EENTRO =        -0.00000000
  eigenvalues    EBANDS =      -219.58782660
  atomic energy  EATOM  =      1042.59758728
  Solvation  Ediel_sol  =         0.00000000
  ---------------------------------------------------
  free energy    TOTEN  =        -2.23557589 eV

  energy without entropy =       -2.23557589  energy(sigma->0) =       -2.23557589


--------------------------------------------------------------------------------------------------------




--------------------------------------- Iteration      1(  35)  ---------------------------------------


    POTLOK:  cpu time      0.5637: real time      0.5675
    SETDIJ:  cpu time      0.4622: real time      0.4645
     EDDAV:  cpu time      0.1572: real time      0.1587
       DOS:  cpu time      0.0002: real time      0.0002
    CHARGE:  cpu time      0.0433: real time      0.0438
    MIXING:  cpu time      0.0171: real time      0.0173
    --------------------------------------------
      LOOP:  cpu time      1.2438: real time      1.2520

 eigenvalue-minimisations  :    62
 total energy-change (2. order) :-0.6040076E-01  (-0.6593153E-03)
 number of electron      10.0000003 magnetization       4.0532504
 augmentation part        4.8905302 magnetization       1.2897424

 Broyden mixing:
  rms(total) = 0.48976E-01    rms(broyden)= 0.48964E-01
  rms(prec ) = 0.50373E-01
  weight for this iteration     100.00

 eigenvalues of (default mixing * dielectric matrix)
  average eigenvalue GAMMA=   1.8037
 11.7434 11.7434  3.7828  3.7828  2.1930  1.4340  1.4340  1.4149  1.4149  1.3302
  1.3302  1.1673  1.1673  0.9668  0.7376  0.7376  0.4466  0.4466  0.6862  0.6862
  0.7137  0.7137  0.6650  0.6278  0.6278  0.5884  0.5781  0.5781  0.1866  0.1866

 Free energy of the ion-electron system (eV)
  ---------------------------------------------------
  alpha Z        PSCENC =         0.18391265
  Ewald energy   TEWEN  =      -112.86085496
  -Hartree energ DENC   =      -748.54264772
  -exchange      EXHF   =         0.00000000
  -V(xc)+E(xc)   XCENC  =        35.15236705
  PAW double counting   =       832.94024438     -832.05019335
  entropy T*S    EENTRO =        -0.00000000
  eigenvalues    EBANDS =      -219.71639198
  atomic energy  EATOM  =      1042.59758728
  Solvation  Ediel_sol  =         0.00000000
  ---------------------------------------------------
  free energy    TOTEN  =        -2.29597665 eV

  energy without entropy =       -2.29597665  energy(sigma->0) =       -2.29597665


--------------------------------------------------------------------------------------------------------




--------------------------------------- Iteration      1(  36)  ---------------------------------------


    POTLOK:  cpu time      0.5869: real time      0.5912
    SETDIJ:  cpu time      0.4622: real time      0.4644
     EDDAV:  cpu time      0.1564: real time      0.1581
       DOS:  cpu time      0.0002: real time      0.0002
    CHARGE:  cpu time      0.0442: real time      0.0447
    MIXING:  cpu time      0.0165: real time      0.0167
    --------------------------------------------
      LOOP:  cpu time      1.2663: real time      1.2752

 eigenvalue-minimisations  :    62
 total energy-change (2. order) : 0.6898944E-01  (-0.3608469E-03)
 number of electron      10.0000003 magnetization       4.0698555
 augmentation part        4.8891872 magnetization       1.3036352

 Broyden mixing:
  rms(total) = 0.53799E-01    rms(broyden)= 0.53797E-01
  rms(prec ) = 0.55447E-01
  weight for this iteration     100.00

 eigenvalues of (default mixing * dielectric matrix)
  average eigenvalue GAMMA=   1.7704
 11.6235 11.6235  3.7932  3.7932  2.1930  1.4319  1.4319  1.5557  1.5557  1.1734
  1.1734  1.2965  1.2965  0.7374  0.7374  0.8813  0.4466  0.4466  0.7013  0.7013
  0.6584  0.6584  0.7393  0.6106  0.6106  0.5841  0.5747  0.5747  0.5144  0.5144
  0.2510

 Free energy of the ion-electron system (eV)
  ---------------------------------------------------
  alpha Z        PSCENC =         0.18391265
  Ewald energy   TEWEN  =      -112.86085496
  -Hartree energ DENC   =      -748.74532797
  -exchange      EXHF   =         0.00000000
  -V(xc)+E(xc)   XCENC  =        35.22270800
  PAW double counting   =       833.28227204     -832.36651638
  entropy T*S    EENTRO =        -0.00000000
  eigenvalues    EBANDS =      -219.54076787
  atomic energy  EATOM  =      1042.59758728
  Solvation  Ediel_sol  =         0.00000000
  ---------------------------------------------------
  free energy    TOTEN  =        -2.22698721 eV

  energy without entropy =       -2.22698721  energy(sigma->0) =       -2.22698721


--------------------------------------------------------------------------------------------------------




--------------------------------------- Iteration      1(  37)  ---------------------------------------


    POTLOK:  cpu time      0.5716: real time      0.5759
    SETDIJ:  cpu time      0.4621: real time      0.4644
     EDDAV:  cpu time      0.1377: real time      0.1388
       DOS:  cpu time      0.0002: real time      0.0002
    CHARGE:  cpu time      0.0446: real time      0.0451
    MIXING:  cpu time      0.0173: real time      0.0175
    --------------------------------------------
      LOOP:  cpu time      1.2335: real time      1.2418

 eigenvalue-minimisations  :    50
 total energy-change (2. order) : 0.9226290E-01  (-0.4665792E-03)
 number of electron      10.0000003 magnetization       4.0737661
 augmentation part        4.8874659 magnetization       1.3037325

 Broyden mixing:
  rms(total) = 0.59812E-01    rms(broyden)= 0.59812E-01
  rms(prec ) = 0.61777E-01
  weight for this iteration     100.00

 eigenvalues of (default mixing * dielectric matrix)
  average eigenvalue GAMMA=   1.7389
 13.2548  9.6966  3.8382  3.8382  2.1930  1.6874  1.6874  1.4307  1.4307  1.1748
  1.1748  1.2635  1.2635  0.7397  0.7397  0.7369  0.7369  0.4466  0.4466  0.6973
  0.6973  0.6742  0.6742  0.8246  0.7762  0.6000  0.6000  0.5989  0.5960  0.5960
  0.2645  0.2645

 Free energy of the ion-electron system (eV)
  ---------------------------------------------------
  alpha Z        PSCENC =         0.18391265
  Ewald energy   TEWEN  =      -112.86085496
  -Hartree energ DENC   =      -748.99759347
  -exchange      EXHF   =         0.00000000
  -V(xc)+E(xc)   XCENC  =        35.31551106
  PAW double counting   =       833.59215854     -832.64904507
  entropy T*S    EENTRO =        -0.00000000
  eigenvalues    EBANDS =      -219.31640034
  atomic energy  EATOM  =      1042.59758728
  Solvation  Ediel_sol  =         0.00000000
  ---------------------------------------------------
  free energy    TOTEN  =        -2.13472431 eV

  energy without entropy =       -2.13472431  energy(sigma->0) =       -2.13472431


--------------------------------------------------------------------------------------------------------




--------------------------------------- Iteration      1(  38)  ---------------------------------------


    POTLOK:  cpu time      0.5819: real time      0.5864
    SETDIJ:  cpu time      0.4618: real time      0.4642
     EDDAV:  cpu time      0.1869: real time      0.1888
       DOS:  cpu time      0.0002: real time      0.0002
    CHARGE:  cpu time      0.0439: real time      0.0442
    MIXING:  cpu time      0.0177: real time      0.0178
    --------------------------------------------
      LOOP:  cpu time      1.2923: real time      1.3016

 eigenvalue-minimisations  :    76
 total energy-change (2. order) : 0.2439279E-01  (-0.6452460E-04)
 number of electron      10.0000003 magnetization       4.0738119
 augmentation part        4.8866850 magnetization       1.3026828

 Broyden mixing:
  rms(total) = 0.61717E-01    rms(broyden)= 0.61717E-01
  rms(prec ) = 0.63802E-01
  weight for this iteration     100.00

 eigenvalues of (default mixing * dielectric matrix)
  average eigenvalue GAMMA=   1.6871
 13.2422  9.6890  3.8414  3.8414  2.1930  1.6881  1.6881  1.4307  1.4307  1.1747
  1.1747  1.2639  1.2639  0.7445  0.7445  0.7370  0.7370  0.4466  0.4466  0.6973
  0.6973  0.8212  0.6750  0.6750  0.7790  0.5994  0.5994  0.5984  0.5963  0.5963
  0.0457  0.2574  0.2574

 Free energy of the ion-electron system (eV)
  ---------------------------------------------------
  alpha Z        PSCENC =         0.18391265
  Ewald energy   TEWEN  =      -112.86085496
  -Hartree energ DENC   =      -749.07096436
  -exchange      EXHF   =         0.00000000
  -V(xc)+E(xc)   XCENC  =        35.34032840
  PAW double counting   =       833.61299641     -832.66462610
  entropy T*S    EENTRO =        -0.00000000
  eigenvalues    EBANDS =      -219.24871085
  atomic energy  EATOM  =      1042.59758728
  Solvation  Ediel_sol  =         0.00000000
  ---------------------------------------------------
  free energy    TOTEN  =        -2.11033152 eV

  energy without entropy =       -2.11033152  energy(sigma->0) =       -2.11033152


--------------------------------------------------------------------------------------------------------




--------------------------------------- Iteration      1(  39)  ---------------------------------------


    POTLOK:  cpu time      0.5855: real time      0.5899
    SETDIJ:  cpu time      0.4621: real time      0.4644
     EDDAV:  cpu time      0.1264: real time      0.1276
       DOS:  cpu time      0.0002: real time      0.0002
    CHARGE:  cpu time      0.0464: real time      0.0470
    MIXING:  cpu time      0.0178: real time      0.0179
    --------------------------------------------
      LOOP:  cpu time      1.2384: real time      1.2469

 eigenvalue-minimisations  :    46
 total energy-change (2. order) :-0.4136799E-03  (-0.8973490E-06)
 number of electron      10.0000003 magnetization       4.0733249
 augmentation part        4.8867116 magnetization       1.3022379

 Broyden mixing:
  rms(total) = 0.61657E-01    rms(broyden)= 0.61657E-01
  rms(prec ) = 0.63740E-01
  weight for this iteration     100.00

 eigenvalues of (default mixing * dielectric matrix)
  average eigenvalue GAMMA=   1.6746
 13.1918  9.7894  3.7988  3.7988  2.1930  1.6873  1.6873  1.4305  1.4305  0.6703
  1.1747  1.1747  1.2595  1.2595  0.8415  0.8415  0.7368  0.7368  0.4466  0.4466
  0.6950  0.6950  0.8233  0.6839  0.6839  0.7785  0.5977  0.5977  0.6005  0.5955
  0.5955  0.3545  0.3545  0.2852

 Free energy of the ion-electron system (eV)
  ---------------------------------------------------
  alpha Z        PSCENC =         0.18391265
  Ewald energy   TEWEN  =      -112.86085496
  -Hartree energ DENC   =      -749.06890566
  -exchange      EXHF   =         0.00000000
  -V(xc)+E(xc)   XCENC  =        35.33999205
  PAW double counting   =       833.62068810     -832.67224596
  entropy T*S    EENTRO =        -0.00000000
  eigenvalues    EBANDS =      -219.25091870
  atomic energy  EATOM  =      1042.59758728
  Solvation  Ediel_sol  =         0.00000000
  ---------------------------------------------------
  free energy    TOTEN  =        -2.11074520 eV

  energy without entropy =       -2.11074520  energy(sigma->0) =       -2.11074520


--------------------------------------------------------------------------------------------------------




--------------------------------------- Iteration      1(  40)  ---------------------------------------


    POTLOK:  cpu time      0.5693: real time      0.5738
    SETDIJ:  cpu time      0.4621: real time      0.4644
     EDDAV:  cpu time      0.1394: real time      0.1408
       DOS:  cpu time      0.0002: real time      0.0002
    CHARGE:  cpu time      0.0437: real time      0.0442
    MIXING:  cpu time      0.0183: real time      0.0184
    --------------------------------------------
      LOOP:  cpu time      1.2329: real time      1.2418

 eigenvalue-minimisations  :    52
 total energy-change (2. order) :-0.2981823E-02  (-0.7526657E-06)
 number of electron      10.0000003 magnetization       4.0746623
 augmentation part        4.8867557 magnetization       1.3036830

 Broyden mixing:
  rms(total) = 0.61553E-01    rms(broyden)= 0.61553E-01
  rms(prec ) = 0.63628E-01
  weight for this iteration     100.00

 eigenvalues of (default mixing * dielectric matrix)
  average eigenvalue GAMMA=   1.6643
 13.4490  9.6672  3.7673  3.7673  2.1929  1.2113  1.7052  1.7052  1.4299  1.4299
  1.1749  1.1749  0.9811  0.9811  1.2499  1.2499  0.7369  0.7369  0.6930  0.6930
  0.4466  0.4466  0.6927  0.6927  0.8192  0.7846  0.5937  0.5937  0.5974  0.5971
  0.5971  0.4126  0.4126  0.2838  0.2838

 Free energy of the ion-electron system (eV)
  ---------------------------------------------------
  alpha Z        PSCENC =         0.18391265
  Ewald energy   TEWEN  =      -112.86085496
  -Hartree energ DENC   =      -749.06143388
  -exchange      EXHF   =         0.00000000
  -V(xc)+E(xc)   XCENC  =        35.33708851
  PAW double counting   =       833.61049217     -832.66289164
  entropy T*S    EENTRO =        -0.00000000
  eigenvalues    EBANDS =      -219.25762717
  atomic energy  EATOM  =      1042.59758728
  Solvation  Ediel_sol  =         0.00000000
  ---------------------------------------------------
  free energy    TOTEN  =        -2.11372702 eV

  energy without entropy =       -2.11372702  energy(sigma->0) =       -2.11372702


--------------------------------------------------------------------------------------------------------




--------------------------------------- Iteration      1(  41)  ---------------------------------------


    POTLOK:  cpu time      0.5716: real time      0.5757
    SETDIJ:  cpu time      0.4653: real time      0.4676
     EDDAV:  cpu time      0.1396: real time      0.1408
       DOS:  cpu time      0.0002: real time      0.0002
    CHARGE:  cpu time      0.0440: real time      0.0444
    MIXING:  cpu time      0.0185: real time      0.0187
    --------------------------------------------
      LOOP:  cpu time      1.2391: real time      1.2473

 eigenvalue-minimisations  :    52
 total energy-change (2. order) : 0.7014869E-02  (-0.3971469E-05)
 number of electron      10.0000003 magnetization       4.0734838
 augmentation part        4.8867136 magnetization       1.3023450

 Broyden mixing:
  rms(total) = 0.62203E-01    rms(broyden)= 0.62203E-01
  rms(prec ) = 0.64287E-01
  weight for this iteration     100.00

 eigenvalues of (default mixing * dielectric matrix)
  average eigenvalue GAMMA=   1.6745
 12.7825  9.8598  3.9724  3.9724  2.1931  1.5429  1.5429  1.7310  1.7310  1.4310
  1.4310  1.1766  1.1766  0.9886  0.9886  1.2388  1.2388  0.7363  0.7363  0.4466
  0.4466  0.6901  0.6901  0.7012  0.7012  0.7844  0.7844  0.5921  0.5921  0.5913
  0.5978  0.5978  0.4709  0.4709  0.3264  0.3264

 Free energy of the ion-electron system (eV)
  ---------------------------------------------------
  alpha Z        PSCENC =         0.18391265
  Ewald energy   TEWEN  =      -112.86085496
  -Hartree energ DENC   =      -749.07977086
  -exchange      EXHF   =         0.00000000
  -V(xc)+E(xc)   XCENC  =        35.34435777
  PAW double counting   =       833.61422675     -832.66420028
  entropy T*S    EENTRO =        -0.00000000
  eigenvalues    EBANDS =      -219.24197050
  atomic energy  EATOM  =      1042.59758728
  Solvation  Ediel_sol  =         0.00000000
  ---------------------------------------------------
  free energy    TOTEN  =        -2.10671215 eV

  energy without entropy =       -2.10671215  energy(sigma->0) =       -2.10671215


--------------------------------------------------------------------------------------------------------




--------------------------------------- Iteration      1(  42)  ---------------------------------------


    POTLOK:  cpu time      0.5806: real time      0.5850
    SETDIJ:  cpu time      0.4622: real time      0.4646
     EDDAV:  cpu time      0.1545: real time      0.1560
       DOS:  cpu time      0.0002: real time      0.0002
    CHARGE:  cpu time      0.0444: real time      0.0450
    MIXING:  cpu time      0.0191: real time      0.0192
    --------------------------------------------
      LOOP:  cpu time      1.2610: real time      1.2700

 eigenvalue-minimisations  :    60
 total energy-change (2. order) : 0.1172260E-02  (-0.2043392E-04)
 number of electron      10.0000003 magnetization       4.0658500
 augmentation part        4.8867846 magnetization       1.2946659

 Broyden mixing:
  rms(total) = 0.60672E-01    rms(broyden)= 0.60672E-01
  rms(prec ) = 0.62750E-01
  weight for this iteration     100.00

 eigenvalues of (default mixing * dielectric matrix)
  average eigenvalue GAMMA=   1.6701
 11.3672 11.3672  3.9587  3.9587  2.1932  1.9321  1.9321  1.6966  1.6966  1.4309
  1.4309  1.1206  1.1206  1.1763  1.1763  1.2379  1.2379  0.7365  0.7365  0.4466
  0.4466  0.6838  0.6838  0.7302  0.7302  0.7774  0.7774  0.5895  0.5980  0.5980
  0.5875  0.5875  0.5243  0.5243  0.3444  0.3444  0.3135

 Free energy of the ion-electron system (eV)
  ---------------------------------------------------
  alpha Z        PSCENC =         0.18391265
  Ewald energy   TEWEN  =      -112.86085496
  -Hartree energ DENC   =      -749.05863857
  -exchange      EXHF   =         0.00000000
  -V(xc)+E(xc)   XCENC  =        35.34290589
  PAW double counting   =       833.60583509     -832.65961332
  entropy T*S    EENTRO =        -0.00000000
  eigenvalues    EBANDS =      -219.25667395
  atomic energy  EATOM  =      1042.59758728
  Solvation  Ediel_sol  =         0.00000000
  ---------------------------------------------------
  free energy    TOTEN  =        -2.10553989 eV

  energy without entropy =       -2.10553989  energy(sigma->0) =       -2.10553989


--------------------------------------------------------------------------------------------------------




--------------------------------------- Iteration      1(  43)  ---------------------------------------


    POTLOK:  cpu time      0.5850: real time      0.5895
    SETDIJ:  cpu time      0.4622: real time      0.4646
     EDDAV:  cpu time      0.1674: real time      0.1690
       DOS:  cpu time      0.0002: real time      0.0002
    CHARGE:  cpu time      0.0444: real time      0.0449
    MIXING:  cpu time      0.0194: real time      0.0194
    --------------------------------------------
      LOOP:  cpu time      1.2786: real time      1.2875

 eigenvalue-minimisations  :    66
 total energy-change (2. order) :-0.4348240E-01  (-0.9697738E-04)
 number of electron      10.0000003 magnetization       4.0470681
 augmentation part        4.8877118 magnetization       1.2776134

 Broyden mixing:
  rms(total) = 0.56387E-01    rms(broyden)= 0.56387E-01
  rms(prec ) = 0.58309E-01
  weight for this iteration     100.00

 eigenvalues of (default mixing * dielectric matrix)
  average eigenvalue GAMMA=   1.7420
 11.8992 11.8992  3.5845  3.5845  2.8052  2.8052  2.1932  1.9915  1.9915  1.4719
  1.4719  1.4249  1.4249  1.1711  1.1711  1.1635  1.1635  0.8978  0.8978  0.7342
  0.7342  0.4466  0.4466  0.6898  0.6898  0.7536  0.7536  0.6377  0.6377  0.6202
  0.6202  0.6045  0.6045  0.5888  0.4709  0.4709  0.3395  0.3395

 Free energy of the ion-electron system (eV)
  ---------------------------------------------------
  alpha Z        PSCENC =         0.18391265
  Ewald energy   TEWEN  =      -112.86085496
  -Hartree energ DENC   =      -748.92081280
  -exchange      EXHF   =         0.00000000
  -V(xc)+E(xc)   XCENC  =        35.29766128
  PAW double counting   =       833.43298779     -832.50428009
  entropy T*S    EENTRO =        -0.00000000
  eigenvalues    EBANDS =      -219.37522344
  atomic energy  EATOM  =      1042.59758728
  Solvation  Ediel_sol  =         0.00000000
  ---------------------------------------------------
  free energy    TOTEN  =        -2.14902230 eV

  energy without entropy =       -2.14902230  energy(sigma->0) =       -2.14902230


--------------------------------------------------------------------------------------------------------




--------------------------------------- Iteration      1(  44)  ---------------------------------------


    POTLOK:  cpu time      0.5847: real time      0.5895
    SETDIJ:  cpu time      0.4620: real time      0.4642
     EDDAV:  cpu time      0.1549: real time      0.1565
       DOS:  cpu time      0.0002: real time      0.0002
    CHARGE:  cpu time      0.0447: real time      0.0452
    MIXING:  cpu time      0.0196: real time      0.0197
    --------------------------------------------
      LOOP:  cpu time      1.2661: real time      1.2752

 eigenvalue-minimisations  :    60
 total energy-change (2. order) :-0.1334127E+00  (-0.1319079E-02)
 number of electron      10.0000003 magnetization       4.0494384
 augmentation part        4.8906239 magnetization       1.2854884

 Broyden mixing:
  rms(total) = 0.47150E-01    rms(broyden)= 0.47147E-01
  rms(prec ) = 0.48579E-01
  weight for this iteration     100.00

 eigenvalues of (default mixing * dielectric matrix)
  average eigenvalue GAMMA=   1.7399
 12.2648 12.2648  3.5130  3.5130  3.0743  3.0743  2.1932  2.0446  2.0446  1.5289
  1.5289  1.4263  1.4263  1.1704  1.1704  1.1500  1.1500  0.9025  0.9025  0.7339
  0.7339  0.4466  0.4466  0.6917  0.6917  0.7543  0.7543  0.6574  0.6574  0.6062
  0.6062  0.6059  0.6059  0.5918  0.4739  0.4739  0.3362  0.3362  0.3096

 Free energy of the ion-electron system (eV)
  ---------------------------------------------------
  alpha Z        PSCENC =         0.18391265
  Ewald energy   TEWEN  =      -112.86085496
  -Hartree energ DENC   =      -748.52152075
  -exchange      EXHF   =         0.00000000
  -V(xc)+E(xc)   XCENC  =        35.16354040
  PAW double counting   =       832.76036458     -831.87737215
  entropy T*S    EENTRO =        -0.00000000
  eigenvalues    EBANDS =      -219.72809201
  atomic energy  EATOM  =      1042.59758728
  Solvation  Ediel_sol  =         0.00000000
  ---------------------------------------------------
  free energy    TOTEN  =        -2.28243497 eV

  energy without entropy =       -2.28243497  energy(sigma->0) =       -2.28243497


--------------------------------------------------------------------------------------------------------




--------------------------------------- Iteration      1(  45)  ---------------------------------------


    POTLOK:  cpu time      0.5928: real time      0.5976
    SETDIJ:  cpu time      0.4622: real time      0.4645
     EDDAV:  cpu time      0.1391: real time      0.1405
       DOS:  cpu time      0.0002: real time      0.0002
    CHARGE:  cpu time      0.0435: real time      0.0440
    MIXING:  cpu time      0.0202: real time      0.0204
    --------------------------------------------
      LOOP:  cpu time      1.2580: real time      1.2672

 eigenvalue-minimisations  :    52
 total energy-change (2. order) :-0.5079478E-02  (-0.9722756E-04)
 number of electron      10.0000003 magnetization       4.0368943
 augmentation part        4.8910520 magnetization       1.2738334

 Broyden mixing:
  rms(total) = 0.45449E-01    rms(broyden)= 0.45446E-01
  rms(prec ) = 0.46808E-01
  weight for this iteration     100.00

 eigenvalues of (default mixing * dielectric matrix)
  average eigenvalue GAMMA=   1.7796
 12.7098 12.7098  3.5384  3.5384  3.4255  3.4255  2.1933  2.1614  2.1614  1.6668
  1.6668  1.4295  1.4295  1.1687  1.1687  1.1573  1.1573  0.9600  0.9600  0.7347
  0.7347  0.4466  0.4466  0.6877  0.6877  0.7965  0.7965  0.7268  0.7268  0.5851
  0.5851  0.6005  0.5977  0.5977  0.5652  0.5652  0.4963  0.4963  0.3412  0.3412

 Free energy of the ion-electron system (eV)
  ---------------------------------------------------
  alpha Z        PSCENC =         0.18391265
  Ewald energy   TEWEN  =      -112.86085496
  -Hartree energ DENC   =      -748.47640601
  -exchange      EXHF   =         0.00000000
  -V(xc)+E(xc)   XCENC  =        35.15778841
  PAW double counting   =       832.70509639     -831.82207660
  entropy T*S    EENTRO =        -0.00000000
  eigenvalues    EBANDS =      -219.77256160
  atomic energy  EATOM  =      1042.59758728
  Solvation  Ediel_sol  =         0.00000000
  ---------------------------------------------------
  free energy    TOTEN  =        -2.28751445 eV

  energy without entropy =       -2.28751445  energy(sigma->0) =       -2.28751445


--------------------------------------------------------------------------------------------------------




--------------------------------------- Iteration      1(  46)  ---------------------------------------


    POTLOK:  cpu time      0.5876: real time      0.5919
    SETDIJ:  cpu time      0.4624: real time      0.4646
     EDDAV:  cpu time      0.1723: real time      0.1742
       DOS:  cpu time      0.0002: real time      0.0002
    CHARGE:  cpu time      0.0439: real time      0.0444
    MIXING:  cpu time      0.0212: real time      0.0214
    --------------------------------------------
      LOOP:  cpu time      1.2875: real time      1.2966

 eigenvalue-minimisations  :    70
 total energy-change (2. order) :-0.7283059E-01  (-0.5022669E-03)
 number of electron      10.0000003 magnetization       4.0364445
 augmentation part        4.8927038 magnetization       1.2765676

 Broyden mixing:
  rms(total) = 0.37437E-01    rms(broyden)= 0.37434E-01
  rms(prec ) = 0.38534E-01
  weight for this iteration     100.00

 eigenvalues of (default mixing * dielectric matrix)
  average eigenvalue GAMMA=   1.7341
 12.6760 12.6760  3.5154  3.5154  3.4268  3.4268  2.1933  2.1634  2.1634  1.6578
  1.6578  1.4293  1.4293  1.1687  1.1687  1.1563  1.1563  0.9547  0.9547  0.0550
  0.7347  0.7347  0.4466  0.4466  0.6880  0.6880  0.7955  0.7955  0.7259  0.7259
  0.5838  0.5838  0.6012  0.5972  0.5972  0.5661  0.5661  0.4961  0.4961  0.3413
  0.3413

 Free energy of the ion-electron system (eV)
  ---------------------------------------------------
  alpha Z        PSCENC =         0.18391265
  Ewald energy   TEWEN  =      -112.86085496
  -Hartree energ DENC   =      -748.21751282
  -exchange      EXHF   =         0.00000000
  -V(xc)+E(xc)   XCENC  =        35.08038822
  PAW double counting   =       832.35550453     -831.50290053
  entropy T*S    EENTRO =        -0.00000000
  eigenvalues    EBANDS =      -219.99646942
  atomic energy  EATOM  =      1042.59758728
  Solvation  Ediel_sol  =         0.00000000
  ---------------------------------------------------
  free energy    TOTEN  =        -2.36034504 eV

  energy without entropy =       -2.36034504  energy(sigma->0) =       -2.36034504


--------------------------------------------------------------------------------------------------------




--------------------------------------- Iteration      1(  47)  ---------------------------------------


    POTLOK:  cpu time      0.5886: real time      0.5933
    SETDIJ:  cpu time      0.4623: real time      0.4646
     EDDAV:  cpu time      0.1697: real time      0.1713
       DOS:  cpu time      0.0001: real time      0.0001
    CHARGE:  cpu time      0.0437: real time      0.0442
    MIXING:  cpu time      0.0222: real time      0.0223
    --------------------------------------------
      LOOP:  cpu time      1.2867: real time      1.2959

 eigenvalue-minimisations  :    68
 total energy-change (2. order) :-0.4918511E-02  (-0.1117451E-04)
 number of electron      10.0000003 magnetization       4.0353698
 augmentation part        4.8929214 magnetization       1.2758230

 Broyden mixing:
  rms(total) = 0.36571E-01    rms(broyden)= 0.36570E-01
  rms(prec ) = 0.37638E-01
  weight for this iteration     100.00

 eigenvalues of (default mixing * dielectric matrix)
  average eigenvalue GAMMA=   1.7132
 12.7229 12.7229  3.5914  3.5914  3.4064  3.4064  2.1933  2.1686  2.1686  1.6713
  1.6713  1.4289  1.4289  1.1693  1.1693  1.1566  1.1566  0.9350  0.9350  0.7347
  0.7347  0.3610  0.3610  0.4466  0.4466  0.6883  0.6883  0.7950  0.7950  0.7213
  0.7213  0.5814  0.5814  0.6019  0.5953  0.5953  0.5664  0.5664  0.5155  0.4802
  0.3414  0.3414

 Free energy of the ion-electron system (eV)
  ---------------------------------------------------
  alpha Z        PSCENC =         0.18391265
  Ewald energy   TEWEN  =      -112.86085496
  -Hartree energ DENC   =      -748.19285671
  -exchange      EXHF   =         0.00000000
  -V(xc)+E(xc)   XCENC  =        35.07478969
  PAW double counting   =       832.32623413     -831.47614600
  entropy T*S    EENTRO =        -0.00000000
  eigenvalues    EBANDS =      -220.01792963
  atomic energy  EATOM  =      1042.59758728
  Solvation  Ediel_sol  =         0.00000000
  ---------------------------------------------------
  free energy    TOTEN  =        -2.36526355 eV

  energy without entropy =       -2.36526355  energy(sigma->0) =       -2.36526355


--------------------------------------------------------------------------------------------------------




--------------------------------------- Iteration      1(  48)  ---------------------------------------


    POTLOK:  cpu time      0.5803: real time      0.5845
    SETDIJ:  cpu time      0.4623: real time      0.4647
     EDDAV:  cpu time      0.1522: real time      0.1536
       DOS:  cpu time      0.0002: real time      0.0002
    CHARGE:  cpu time      0.0437: real time      0.0442
    MIXING:  cpu time      0.0213: real time      0.0215
    --------------------------------------------
      LOOP:  cpu time      1.2601: real time      1.2686

 eigenvalue-minimisations  :    58
 total energy-change (2. order) :-0.8778118E-02  (-0.3895226E-04)
 number of electron      10.0000003 magnetization       4.0478800
 augmentation part        4.8931309 magnetization       1.2887639

 Broyden mixing:
  rms(total) = 0.36270E-01    rms(broyden)= 0.36269E-01
  rms(prec ) = 0.37299E-01
  weight for this iteration     100.00

 eigenvalues of (default mixing * dielectric matrix)
  average eigenvalue GAMMA=   1.7546
 13.1489 13.1489  3.9852  3.9852  3.3221  3.3221  2.1933  2.1683  2.1683  1.8518
  1.8518  1.4263  1.4263  1.1169  1.1169  1.1713  1.1713  1.1521  1.1521  0.8568
  0.8568  0.7338  0.7338  0.4466  0.4466  0.6912  0.6912  0.7977  0.7977  0.7169
  0.7169  0.5745  0.5745  0.6044  0.5991  0.5991  0.5634  0.5634  0.5034  0.4867
  0.3289  0.3417  0.3417

 Free energy of the ion-electron system (eV)
  ---------------------------------------------------
  alpha Z        PSCENC =         0.18391265
  Ewald energy   TEWEN  =      -112.86085496
  -Hartree energ DENC   =      -748.16010512
  -exchange      EXHF   =         0.00000000
  -V(xc)+E(xc)   XCENC  =        35.06592636
  PAW double counting   =       832.29896343     -831.45198488
  entropy T*S    EENTRO =        -0.00000000
  eigenvalues    EBANDS =      -220.04748642
  atomic energy  EATOM  =      1042.59758728
  Solvation  Ediel_sol  =         0.00000000
  ---------------------------------------------------
  free energy    TOTEN  =        -2.37404167 eV

  energy without entropy =       -2.37404167  energy(sigma->0) =       -2.37404167


--------------------------------------------------------------------------------------------------------




--------------------------------------- Iteration      1(  49)  ---------------------------------------


    POTLOK:  cpu time      0.5849: real time      0.5893
    SETDIJ:  cpu time      0.4620: real time      0.4647
     EDDAV:  cpu time      0.1494: real time      0.1507
       DOS:  cpu time      0.0002: real time      0.0002
    CHARGE:  cpu time      0.0437: real time      0.0442
    MIXING:  cpu time      0.0219: real time      0.0221
    --------------------------------------------
      LOOP:  cpu time      1.2620: real time      1.2712

 eigenvalue-minimisations  :    56
 total energy-change (2. order) : 0.3571193E-01  (-0.6688331E-03)
 number of electron      10.0000002 magnetization       4.0407150
 augmentation part        4.8931103 magnetization       1.2809241

 Broyden mixing:
  rms(total) = 0.39811E-01    rms(broyden)= 0.39781E-01
  rms(prec ) = 0.40862E-01
  weight for this iteration     100.00

 eigenvalues of (default mixing * dielectric matrix)
  average eigenvalue GAMMA=   1.7217
 13.1691 13.1691  4.0225  4.0225  3.3149  3.3149  2.1933  2.1646  2.1646  1.8724
  1.8724  1.4258  1.4258  1.1528  1.1528  1.1712  1.1712  1.1523  1.1523  0.8646
  0.8646  0.7339  0.7339  0.4466  0.4466  0.6910  0.6910  0.7972  0.7972  0.7175
  0.7175  0.5751  0.5751  0.6042  0.5995  0.5995  0.5614  0.5614  0.1104  0.5148
  0.4781  0.3069  0.3412  0.3412

 Free energy of the ion-electron system (eV)
  ---------------------------------------------------
  alpha Z        PSCENC =         0.18391265
  Ewald energy   TEWEN  =      -112.86085496
  -Hartree energ DENC   =      -748.24542514
  -exchange      EXHF   =         0.00000000
  -V(xc)+E(xc)   XCENC  =        35.10367200
  PAW double counting   =       832.57017524     -831.70310197
  entropy T*S    EENTRO =        -0.00000000
  eigenvalues    EBANDS =      -219.98429484
  atomic energy  EATOM  =      1042.59758728
  Solvation  Ediel_sol  =         0.00000000
  ---------------------------------------------------
  free energy    TOTEN  =        -2.33832974 eV

  energy without entropy =       -2.33832974  energy(sigma->0) =       -2.33832974


--------------------------------------------------------------------------------------------------------




--------------------------------------- Iteration      1(  50)  ---------------------------------------


    POTLOK:  cpu time      0.5696: real time      0.5735
    SETDIJ:  cpu time      0.4621: real time      0.4643
     EDDAV:  cpu time      0.1365: real time      0.1377
       DOS:  cpu time      0.0002: real time      0.0002
    CHARGE:  cpu time      0.0483: real time      0.0490
    MIXING:  cpu time      0.0254: real time      0.0256
    --------------------------------------------
      LOOP:  cpu time      1.2420: real time      1.2503

 eigenvalue-minimisations  :    50
 total energy-change (2. order) :-0.3497492E-01  (-0.2064268E-03)
 number of electron      10.0000002 magnetization       4.0370516
 augmentation part        4.8940235 magnetization       1.2788826

 Broyden mixing:
  rms(total) = 0.37836E-01    rms(broyden)= 0.37826E-01
  rms(prec ) = 0.38783E-01
  weight for this iteration     100.00

 eigenvalues of (default mixing * dielectric matrix)
  average eigenvalue GAMMA=   1.8860
 14.4973 14.4973  4.2670  3.0837  3.0837  3.4213  3.4213  1.5665  1.8681  1.8681
  1.8772  1.8772  1.3615  1.3615  1.4564  0.9578  0.9578  0.5845  0.5845  0.9812
  0.9812  0.7601  0.7601  0.1635  0.7886  0.7886  0.4113  0.4113  0.3040  0.7864
  0.6622  0.6622  0.3994  0.4775  0.4775  0.6514  0.6514  0.5349  0.5973  0.5973

 Free energy of the ion-electron system (eV)
  ---------------------------------------------------
  alpha Z        PSCENC =         0.18391265
  Ewald energy   TEWEN  =      -112.86085496
  -Hartree energ DENC   =      -748.13467183
  -exchange      EXHF   =         0.00000000
  -V(xc)+E(xc)   XCENC  =        35.06760611
  PAW double counting   =       832.47845477     -831.62316185
  entropy T*S    EENTRO =        -0.00000000
  eigenvalues    EBANDS =      -220.08217683
  atomic energy  EATOM  =      1042.59758728
  Solvation  Ediel_sol  =         0.00000000
  ---------------------------------------------------
  free energy    TOTEN  =        -2.37330466 eV

  energy without entropy =       -2.37330466  energy(sigma->0) =       -2.37330466


--------------------------------------------------------------------------------------------------------




--------------------------------------- Iteration      1(  51)  ---------------------------------------


    POTLOK:  cpu time      0.5956: real time      0.6002
    SETDIJ:  cpu time      0.4623: real time      0.4647
     EDDAV:  cpu time      0.1724: real time      0.1741
       DOS:  cpu time      0.0002: real time      0.0002
    CHARGE:  cpu time      0.0433: real time      0.0438
    MIXING:  cpu time      0.0207: real time      0.0208
    --------------------------------------------
      LOOP:  cpu time      1.2945: real time      1.3038

 eigenvalue-minimisations  :    70
 total energy-change (2. order) :-0.1982878E-01  (-0.6378994E-04)
 number of electron      10.0000002 magnetization       4.0373772
 augmentation part        4.8949724 magnetization       1.2804649

 Broyden mixing:
  rms(total) = 0.32398E-01    rms(broyden)= 0.32398E-01
  rms(prec ) = 0.33202E-01
  weight for this iteration     100.00

 eigenvalues of (default mixing * dielectric matrix)
  average eigenvalue GAMMA=   1.8659
 14.7822 14.7822  4.5803  3.1366  3.1366  3.4078  3.4078  1.4378  1.8728  1.8728
  1.9678  1.9678  1.3566  1.3566  1.3699  0.8289  0.8289  0.9337  0.9337  0.1013
  0.1013  0.9577  0.9577  0.8003  0.8003  0.6241  0.6241  0.3831  0.3831  0.3116
  0.7581  0.6682  0.6682  0.3978  0.4938  0.4938  0.6516  0.6516  0.5373  0.5890
  0.5890

 Free energy of the ion-electron system (eV)
  ---------------------------------------------------
  alpha Z        PSCENC =         0.18391265
  Ewald energy   TEWEN  =      -112.86085496
  -Hartree energ DENC   =      -748.00833362
  -exchange      EXHF   =         0.00000000
  -V(xc)+E(xc)   XCENC  =        35.04264143
  PAW double counting   =       832.30218488     -831.46365542
  entropy T*S    EENTRO =        -0.00000000
  eigenvalues    EBANDS =      -220.18661568
  atomic energy  EATOM  =      1042.59758728
  Solvation  Ediel_sol  =         0.00000000
  ---------------------------------------------------
  free energy    TOTEN  =        -2.39313344 eV

  energy without entropy =       -2.39313344  energy(sigma->0) =       -2.39313344


--------------------------------------------------------------------------------------------------------




--------------------------------------- Iteration      1(  52)  ---------------------------------------


    POTLOK:  cpu time      0.5881: real time      0.5923
    SETDIJ:  cpu time      0.4620: real time      0.4643
     EDDAV:  cpu time      0.1441: real time      0.1455
       DOS:  cpu time      0.0002: real time      0.0002
    CHARGE:  cpu time      0.0437: real time      0.0442
    MIXING:  cpu time      0.0210: real time      0.0212
    --------------------------------------------
      LOOP:  cpu time      1.2590: real time      1.2676

 eigenvalue-minimisations  :    56
 total energy-change (2. order) : 0.1514271E-02  (-0.1305662E-05)
 number of electron      10.0000002 magnetization       4.0443174
 augmentation part        4.8949535 magnetization       1.2873363

 Broyden mixing:
  rms(total) = 0.32371E-01    rms(broyden)= 0.32371E-01
  rms(prec ) = 0.33178E-01
  weight for this iteration     100.00

 eigenvalues of (default mixing * dielectric matrix)
  average eigenvalue GAMMA=   1.8222
 14.6290 14.6290  4.5211  3.2339  3.2339  3.4054  3.4054  1.2226  1.8550  1.8550
  1.9609  1.9609  1.3582  1.3582  0.3138  1.3623  0.8235  0.8235  0.9368  0.9368
  0.9481  0.9481  0.1753  0.1753  0.8116  0.8116  0.6362  0.6362  0.3114  0.3902
  0.3902  0.7502  0.6646  0.6646  0.3980  0.4869  0.4869  0.6539  0.6539  0.5340
  0.5901  0.5901

 Free energy of the ion-electron system (eV)
  ---------------------------------------------------
  alpha Z        PSCENC =         0.18391265
  Ewald energy   TEWEN  =      -112.86085496
  -Hartree energ DENC   =      -748.01201484
  -exchange      EXHF   =         0.00000000
  -V(xc)+E(xc)   XCENC  =        35.04403144
  PAW double counting   =       832.32106611     -831.48201103
  entropy T*S    EENTRO =        -0.00000000
  eigenvalues    EBANDS =      -220.18333582
  atomic energy  EATOM  =      1042.59758728
  Solvation  Ediel_sol  =         0.00000000
  ---------------------------------------------------
  free energy    TOTEN  =        -2.39161917 eV

  energy without entropy =       -2.39161917  energy(sigma->0) =       -2.39161917


--------------------------------------------------------------------------------------------------------




--------------------------------------- Iteration      1(  53)  ---------------------------------------


    POTLOK:  cpu time      0.5880: real time      0.5928
    SETDIJ:  cpu time      0.4621: real time      0.4644
     EDDAV:  cpu time      0.1521: real time      0.1536
       DOS:  cpu time      0.0002: real time      0.0002
    CHARGE:  cpu time      0.0428: real time      0.0434
    MIXING:  cpu time      0.0215: real time      0.0216
    --------------------------------------------
      LOOP:  cpu time      1.2666: real time      1.2759

 eigenvalue-minimisations  :    58
 total energy-change (2. order) : 0.2548451E-01  (-0.1386495E-03)
 number of electron      10.0000002 magnetization       4.0360504
 augmentation part        4.8944799 magnetization       1.2781253

 Broyden mixing:
  rms(total) = 0.35541E-01    rms(broyden)= 0.35537E-01
  rms(prec ) = 0.36429E-01
  weight for this iteration     100.00

 eigenvalues of (default mixing * dielectric matrix)
  average eigenvalue GAMMA=   1.8456
 14.6939 14.6939  5.4606  3.4695  3.4695  3.4969  3.4969  1.2281  1.9019  1.9019
  1.9696  1.9696  1.3553  1.3553  0.9219  0.9219  1.3555  0.9484  0.9484  0.3251
  0.3251  0.9473  0.9473  0.4720  0.4720  0.8445  0.8445  0.2809  0.2809  0.6370
  0.6370  0.6768  0.6768  0.3465  0.3928  0.4936  0.4936  0.7232  0.5055  0.6480
  0.6480  0.5913  0.5913

 Free energy of the ion-electron system (eV)
  ---------------------------------------------------
  alpha Z        PSCENC =         0.18391265
  Ewald energy   TEWEN  =      -112.86085496
  -Hartree energ DENC   =      -748.10524430
  -exchange      EXHF   =         0.00000000
  -V(xc)+E(xc)   XCENC  =        35.07195947
  PAW double counting   =       832.40142746     -831.54814627
  entropy T*S    EENTRO =        -0.00000000
  eigenvalues    EBANDS =      -220.10677599
  atomic energy  EATOM  =      1042.59758728
  Solvation  Ediel_sol  =         0.00000000
  ---------------------------------------------------
  free energy    TOTEN  =        -2.36613466 eV

  energy without entropy =       -2.36613466  energy(sigma->0) =       -2.36613466


--------------------------------------------------------------------------------------------------------




--------------------------------------- Iteration      1(  54)  ---------------------------------------


    POTLOK:  cpu time      0.5780: real time      0.5819
    SETDIJ:  cpu time      0.4630: real time      0.4653
     EDDAV:  cpu time      0.1696: real time      0.1712
       DOS:  cpu time      0.0003: real time      0.0005
    CHARGE:  cpu time      0.0437: real time      0.0442
    MIXING:  cpu time      0.0229: real time      0.0231
    --------------------------------------------
      LOOP:  cpu time      1.2776: real time      1.2863

 eigenvalue-minimisations  :    68
 total energy-change (2. order) :-0.3664015E-01  (-0.1476846E-03)
 number of electron      10.0000002 magnetization       4.0110526
 augmentation part        4.8954771 magnetization       1.2548053

 Broyden mixing:
  rms(total) = 0.31032E-01    rms(broyden)= 0.31032E-01
  rms(prec ) = 0.31773E-01
  weight for this iteration     100.00

 eigenvalues of (default mixing * dielectric matrix)
  average eigenvalue GAMMA=   1.9643
 15.7495 15.7495  7.5166  3.3903  3.3903  3.6036  3.6036  1.5689  2.3358  2.3358
  2.0227  2.0227  1.3588  1.3588  1.2353  1.2353  0.9967  0.9967  1.0256  1.0256
  0.8663  0.8663  0.3636  0.3636  0.6824  0.6824  0.2402  0.6105  0.6105  0.7823
  0.7823  0.2847  0.3942  0.4537  0.4537  0.6727  0.6727  0.4907  0.4907  0.7013
  0.6556  0.6047  0.6047  0.5792

 Free energy of the ion-electron system (eV)
  ---------------------------------------------------
  alpha Z        PSCENC =         0.18391265
  Ewald energy   TEWEN  =      -112.86085496
  -Hartree energ DENC   =      -747.95146766
  -exchange      EXHF   =         0.00000000
  -V(xc)+E(xc)   XCENC  =        35.03131967
  PAW double counting   =       832.38414331     -831.55001586
  entropy T*S    EENTRO =        -0.00000000
  eigenvalues    EBANDS =      -220.23739924
  atomic energy  EATOM  =      1042.59758728
  Solvation  Ediel_sol  =         0.00000000
  ---------------------------------------------------
  free energy    TOTEN  =        -2.40277481 eV

  energy without entropy =       -2.40277481  energy(sigma->0) =       -2.40277481


--------------------------------------------------------------------------------------------------------




--------------------------------------- Iteration      1(  55)  ---------------------------------------


    POTLOK:  cpu time      0.5822: real time      0.5864
    SETDIJ:  cpu time      0.4620: real time      0.4643
     EDDAV:  cpu time      0.1722: real time      0.1739
       DOS:  cpu time      0.0002: real time      0.0002
    CHARGE:  cpu time      0.0441: real time      0.0445
    MIXING:  cpu time      0.0243: real time      0.0245
    --------------------------------------------
      LOOP:  cpu time      1.2849: real time      1.2939

 eigenvalue-minimisations  :    70
 total energy-change (2. order) :-0.8956889E-01  (-0.1698987E-02)
 number of electron      10.0000002 magnetization       4.0374928
 augmentation part        4.8982814 magnetization       1.2861488

 Broyden mixing:
  rms(total) = 0.16205E-01    rms(broyden)= 0.16158E-01
  rms(prec ) = 0.16494E-01
  weight for this iteration     100.00

 eigenvalues of (default mixing * dielectric matrix)
  average eigenvalue GAMMA=   2.0029
 15.2043 14.0532  7.6598  3.8078  3.8078  3.3542  3.3542  1.4927  2.4655  2.2344
  2.2344  1.4105  1.4105  1.3199  1.3199  0.9795  0.9795  0.4541  0.4541  0.8264
  0.8264  0.6254  0.6254  0.8312  0.8312  0.2094  0.2618  0.4323  0.4323  0.6437
  0.6437  0.3931  0.5108  0.5108  0.4429  0.5822  0.6267  0.6267  0.6309  0.6081

 Free energy of the ion-electron system (eV)
  ---------------------------------------------------
  alpha Z        PSCENC =         0.18391265
  Ewald energy   TEWEN  =      -112.86085496
  -Hartree energ DENC   =      -747.49071080
  -exchange      EXHF   =         0.00000000
  -V(xc)+E(xc)   XCENC  =        34.92638815
  PAW double counting   =       832.70034334     -831.92494196
  entropy T*S    EENTRO =        -0.00000000
  eigenvalues    EBANDS =      -220.62406740
  atomic energy  EATOM  =      1042.59758728
  Solvation  Ediel_sol  =         0.00000000
  ---------------------------------------------------
  free energy    TOTEN  =        -2.49234370 eV

  energy without entropy =       -2.49234370  energy(sigma->0) =       -2.49234370


--------------------------------------------------------------------------------------------------------




--------------------------------------- Iteration      1(  56)  ---------------------------------------


    POTLOK:  cpu time      0.5931: real time      0.5977
    SETDIJ:  cpu time      0.4619: real time      0.4644
     EDDAV:  cpu time      0.1519: real time      0.1534
       DOS:  cpu time      0.0002: real time      0.0002
    CHARGE:  cpu time      0.0435: real time      0.0439
    MIXING:  cpu time      0.0206: real time      0.0208
    --------------------------------------------
      LOOP:  cpu time      1.2712: real time      1.2803

 eigenvalue-minimisations  :    58
 total energy-change (2. order) : 0.7653694E-01  (-0.1349930E-02)
 number of electron      10.0000003 magnetization       4.0181676
 augmentation part        4.8959411 magnetization       1.2626785

 Broyden mixing:
  rms(total) = 0.21702E-01    rms(broyden)= 0.21687E-01
  rms(prec ) = 0.22312E-01
  weight for this iteration     100.00

 eigenvalues of (default mixing * dielectric matrix)
  average eigenvalue GAMMA=   2.0128
 14.6623 14.6623  7.9275  4.1382  4.1382  3.5233  3.5233  2.6734  1.4939  2.1631
  2.1631  1.5625  1.5625  1.3058  1.3058  1.0007  1.0007  0.8520  0.8520  0.5061
  0.5061  0.8315  0.8315  0.6466  0.6466  0.1896  0.2330  0.4167  0.4167  0.6422
  0.6422  0.3858  0.5229  0.5229  0.4414  0.7016  0.5502  0.5502  0.6229  0.6133
  0.5939

 Free energy of the ion-electron system (eV)
  ---------------------------------------------------
  alpha Z        PSCENC =         0.18391265
  Ewald energy   TEWEN  =      -112.86085496
  -Hartree energ DENC   =      -747.77396247
  -exchange      EXHF   =         0.00000000
  -V(xc)+E(xc)   XCENC  =        35.00819891
  PAW double counting   =       833.47776820     -832.66779954
  entropy T*S    EENTRO =        -0.00000000
  eigenvalues    EBANDS =      -220.38065684
  atomic energy  EATOM  =      1042.59758728
  Solvation  Ediel_sol  =         0.00000000
  ---------------------------------------------------
  free energy    TOTEN  =        -2.41580676 eV

  energy without entropy =       -2.41580676  energy(sigma->0) =       -2.41580676


--------------------------------------------------------------------------------------------------------




--------------------------------------- Iteration      1(  57)  ---------------------------------------


    POTLOK:  cpu time      0.5875: real time      0.5920
    SETDIJ:  cpu time      0.4624: real time      0.4646
     EDDAV:  cpu time      0.1491: real time      0.1506
       DOS:  cpu time      0.0002: real time      0.0002
    CHARGE:  cpu time      0.0440: real time      0.0446
    MIXING:  cpu time      0.0213: real time      0.0214
    --------------------------------------------
      LOOP:  cpu time      1.2645: real time      1.2734

 eigenvalue-minimisations  :    56
 total energy-change (2. order) :-0.6198177E-01  (-0.1316897E-02)
 number of electron      10.0000003 magnetization       4.0097855
 augmentation part        4.8971509 magnetization       1.2565655

 Broyden mixing:
  rms(total) = 0.11398E-01    rms(broyden)= 0.11207E-01
  rms(prec ) = 0.11641E-01
  weight for this iteration     100.00

 eigenvalues of (default mixing * dielectric matrix)
  average eigenvalue GAMMA=   1.9762
 13.6322 13.6322  8.6763  4.3576  4.3576  3.4479  3.4479  1.5596  2.7590  2.1559
  2.1559  1.8795  1.8795  1.3228  1.3228  1.0021  1.0021  0.4530  0.4530  0.8984
  0.8984  0.1944  0.7796  0.7796  0.5333  0.5333  0.2922  0.4311  0.4311  0.4950
  0.4950  0.5996  0.5996  0.4084  0.4545  0.6841  0.6841  0.7615  0.7111  0.6028
  0.6137  0.6235

 Free energy of the ion-electron system (eV)
  ---------------------------------------------------
  alpha Z        PSCENC =         0.18391265
  Ewald energy   TEWEN  =      -112.86085496
  -Hartree energ DENC   =      -747.49442753
  -exchange      EXHF   =         0.00000000
  -V(xc)+E(xc)   XCENC  =        34.93573140
  PAW double counting   =       833.19482342     -832.42953619
  entropy T*S    EENTRO =        -0.00000000
  eigenvalues    EBANDS =      -220.60502461
  atomic energy  EATOM  =      1042.59758728
  Solvation  Ediel_sol  =         0.00000000
  ---------------------------------------------------
  free energy    TOTEN  =        -2.47778854 eV

  energy without entropy =       -2.47778854  energy(sigma->0) =       -2.47778854


--------------------------------------------------------------------------------------------------------




--------------------------------------- Iteration      1(  58)  ---------------------------------------


    POTLOK:  cpu time      0.5754: real time      0.5798
    SETDIJ:  cpu time      0.4622: real time      0.4645
     EDDAV:  cpu time      0.1517: real time      0.1531
       DOS:  cpu time      0.0002: real time      0.0002
    CHARGE:  cpu time      0.0438: real time      0.0445
    MIXING:  cpu time      0.0217: real time      0.0218
    --------------------------------------------
      LOOP:  cpu time      1.2549: real time      1.2639

 eigenvalue-minimisations  :    58
 total energy-change (2. order) :-0.2039837E-01  (-0.9025599E-03)
 number of electron      10.0000003 magnetization       4.0116027
 augmentation part        4.8972340 magnetization       1.2594945

 Broyden mixing:
  rms(total) = 0.89466E-02    rms(broyden)= 0.87084E-02
  rms(prec ) = 0.91072E-02
  weight for this iteration     100.00

 eigenvalues of (default mixing * dielectric matrix)
  average eigenvalue GAMMA=   1.9420
 13.5748 13.5748  8.6986  4.3069  4.3069  3.2922  3.2922  1.5713  2.7787  2.0489
  2.0489  2.2044  2.2044  1.3206  1.3206  0.9919  0.9919  0.4754  0.4754  0.9318
  0.9318  0.8286  0.8286  0.1936  0.5427  0.5427  0.3010  0.3525  0.3525  0.5197
  0.5197  0.4573  0.4573  0.6045  0.6045  0.4448  0.7568  0.6434  0.6434  0.7071
  0.6458  0.6065  0.6119

 Free energy of the ion-electron system (eV)
  ---------------------------------------------------
  alpha Z        PSCENC =         0.18391265
  Ewald energy   TEWEN  =      -112.86085496
  -Hartree energ DENC   =      -747.41037166
  -exchange      EXHF   =         0.00000000
  -V(xc)+E(xc)   XCENC  =        34.91541151
  PAW double counting   =       832.93677493     -832.18415090
  entropy T*S    EENTRO =        -0.00000000
  eigenvalues    EBANDS =      -220.67649575
  atomic energy  EATOM  =      1042.59758728
  Solvation  Ediel_sol  =         0.00000000
  ---------------------------------------------------
  free energy    TOTEN  =        -2.49818690 eV

  energy without entropy =       -2.49818690  energy(sigma->0) =       -2.49818690


--------------------------------------------------------------------------------------------------------




--------------------------------------- Iteration      1(  59)  ---------------------------------------


    POTLOK:  cpu time      0.5789: real time      0.5836
    SETDIJ:  cpu time      0.4622: real time      0.4647
     EDDAV:  cpu time      0.1248: real time      0.1259
       DOS:  cpu time      0.0002: real time      0.0002
    CHARGE:  cpu time      0.0454: real time      0.0459
    MIXING:  cpu time      0.0222: real time      0.0224
    --------------------------------------------
      LOOP:  cpu time      1.2336: real time      1.2426

 eigenvalue-minimisations  :    44
 total energy-change (2. order) : 0.5994951E-02  (-0.5075694E-04)
 number of electron      10.0000003 magnetization       4.0110202
 augmentation part        4.8972163 magnetization       1.2587143

 Broyden mixing:
  rms(total) = 0.98293E-02    rms(broyden)= 0.98219E-02
  rms(prec ) = 0.10223E-01
  weight for this iteration     100.00

 eigenvalues of (default mixing * dielectric matrix)
  average eigenvalue GAMMA=   1.9338
 13.5998 13.5998  8.8119  4.2910  4.2910  3.2633  3.2633  1.5583  2.7890  2.1618
  2.1618  2.1935  2.1935  1.3346  1.3346  1.0283  1.0283  0.8537  0.8537  0.9682
  0.9682  0.5352  0.5352  0.1772  0.2423  0.6413  0.6413  0.7879  0.7879  0.4029
  0.4029  0.3791  0.5248  0.5248  0.7377  0.7096  0.5922  0.5922  0.5154  0.5154
  0.4649  0.6270  0.6127  0.5890

 Free energy of the ion-electron system (eV)
  ---------------------------------------------------
  alpha Z        PSCENC =         0.18391265
  Ewald energy   TEWEN  =      -112.86085496
  -Hartree energ DENC   =      -747.45302521
  -exchange      EXHF   =         0.00000000
  -V(xc)+E(xc)   XCENC  =        34.92270563
  PAW double counting   =       832.84633744     -832.08527208
  entropy T*S    EENTRO =        -0.00000000
  eigenvalues    EBANDS =      -220.64358271
  atomic energy  EATOM  =      1042.59758728
  Solvation  Ediel_sol  =         0.00000000
  ---------------------------------------------------
  free energy    TOTEN  =        -2.49219195 eV

  energy without entropy =       -2.49219195  energy(sigma->0) =       -2.49219195


--------------------------------------------------------------------------------------------------------




--------------------------------------- Iteration      1(  60)  ---------------------------------------


    POTLOK:  cpu time      0.5752: real time      0.5794
    SETDIJ:  cpu time      0.4623: real time      0.4646
     EDDAV:  cpu time      0.1548: real time      0.1562
       DOS:  cpu time      0.0002: real time      0.0002
    CHARGE:  cpu time      0.0438: real time      0.0443
    MIXING:  cpu time      0.0249: real time      0.0251
    --------------------------------------------
      LOOP:  cpu time      1.2612: real time      1.2698

 eigenvalue-minimisations  :    60
 total energy-change (2. order) :-0.5240150E-02  (-0.1661566E-04)
 number of electron      10.0000003 magnetization       4.0106218
 augmentation part        4.8975011 magnetization       1.2587648

 Broyden mixing:
  rms(total) = 0.87905E-02    rms(broyden)= 0.87902E-02
  rms(prec ) = 0.91483E-02
  weight for this iteration     100.00

 eigenvalues of (default mixing * dielectric matrix)
  average eigenvalue GAMMA=   1.7248
 10.8780  7.0563  5.7498  5.7498  3.6737  3.2348  3.2348  2.5022  2.5022  1.8404
  1.8404  1.8640  1.8640  1.1631  1.1631  1.0287  1.0287  1.0346  0.5882  0.5882
  0.2906  0.2906  0.7694  0.7694  0.2578  0.5742  0.5742  0.6196  0.6196  0.5092
  0.5092  0.7033  0.3560  0.3560  0.5521  0.5521  0.6075  0.4659  0.5150  0.5150

 Free energy of the ion-electron system (eV)
  ---------------------------------------------------
  alpha Z        PSCENC =         0.18391265
  Ewald energy   TEWEN  =      -112.86085496
  -Hartree energ DENC   =      -747.41683217
  -exchange      EXHF   =         0.00000000
  -V(xc)+E(xc)   XCENC  =        34.91631157
  PAW double counting   =       832.48258672     -831.72296428
  entropy T*S    EENTRO =        -0.00000000
  eigenvalues    EBANDS =      -220.67717891
  atomic energy  EATOM  =      1042.59758728
  Solvation  Ediel_sol  =         0.00000000
  ---------------------------------------------------
  free energy    TOTEN  =        -2.49743210 eV

  energy without entropy =       -2.49743210  energy(sigma->0) =       -2.49743210


--------------------------------------------------------------------------------------------------------




--------------------------------------- Iteration      1(  61)  ---------------------------------------


    POTLOK:  cpu time      0.5940: real time      0.5983
    SETDIJ:  cpu time      0.4622: real time      0.4645
     EDDAV:  cpu time      0.1498: real time      0.1511
       DOS:  cpu time      0.0002: real time      0.0002
    CHARGE:  cpu time      0.0443: real time      0.0449
    MIXING:  cpu time      0.0207: real time      0.0209
    --------------------------------------------
      LOOP:  cpu time      1.2712: real time      1.2798

 eigenvalue-minimisations  :    56
 total energy-change (2. order) :-0.7055314E-02  (-0.1514523E-03)
 number of electron      10.0000003 magnetization       4.0081633
 augmentation part        4.8979255 magnetization       1.2570489

 Broyden mixing:
  rms(total) = 0.70096E-02    rms(broyden)= 0.69864E-02
  rms(prec ) = 0.72676E-02
  weight for this iteration     100.00

 eigenvalues of (default mixing * dielectric matrix)
  average eigenvalue GAMMA=   1.7722
 10.7223 10.7223  5.7716  5.7716  3.0670  3.0670  2.4956  2.4956  1.9362  1.9362
  2.1050  2.1050  1.8209  1.8209  1.2039  1.2039  1.0565  1.0565  0.6298  0.6298
  0.2727  0.2727  0.6144  0.6144  0.2708  0.2708  0.7426  0.7426  0.5378  0.5378
  0.7617  0.6228  0.6228  0.3789  0.5235  0.5235  0.4775  0.4775  0.6103  0.5830
  0.5830

 Free energy of the ion-electron system (eV)
  ---------------------------------------------------
  alpha Z        PSCENC =         0.18391265
  Ewald energy   TEWEN  =      -112.86085496
  -Hartree energ DENC   =      -747.34965523
  -exchange      EXHF   =         0.00000000
  -V(xc)+E(xc)   XCENC  =        34.90675756
  PAW double counting   =       832.25271838     -831.49704119
  entropy T*S    EENTRO =        -0.00000000
  eigenvalues    EBANDS =      -220.73791190
  atomic energy  EATOM  =      1042.59758728
  Solvation  Ediel_sol  =         0.00000000
  ---------------------------------------------------
  free energy    TOTEN  =        -2.50448742 eV

  energy without entropy =       -2.50448742  energy(sigma->0) =       -2.50448742


--------------------------------------------------------------------------------------------------------




--------------------------------------- Iteration      1(  62)  ---------------------------------------


    POTLOK:  cpu time      0.5812: real time      0.5853
    SETDIJ:  cpu time      0.4623: real time      0.4646
     EDDAV:  cpu time      0.1671: real time      0.1687
       DOS:  cpu time      0.0002: real time      0.0002
    CHARGE:  cpu time      0.0437: real time      0.0442
    MIXING:  cpu time      0.0216: real time      0.0221
    --------------------------------------------
      LOOP:  cpu time      1.2761: real time      1.2851

 eigenvalue-minimisations  :    66
 total energy-change (2. order) :-0.1020564E-01  (-0.1108358E-03)
 number of electron      10.0000003 magnetization       4.0043914
 augmentation part        4.8984607 magnetization       1.2542824

 Broyden mixing:
  rms(total) = 0.47716E-02    rms(broyden)= 0.47673E-02
  rms(prec ) = 0.49782E-02
  weight for this iteration     100.00

 eigenvalues of (default mixing * dielectric matrix)
  average eigenvalue GAMMA=   1.8375
  9.8678 11.1952 11.1952  3.4028  3.1826  3.1826  2.8587  2.8587  2.3328  2.3328
  2.0893  2.0893  1.3883  1.3883  1.4005  1.4005  0.9881  0.9881  0.7299  0.7299
  0.2733  0.2733  0.5824  0.5824  0.2397  0.7172  0.7172  0.7250  0.7250  0.5620
  0.5620  0.3281  0.5335  0.5335  0.3722  0.6074  0.6074  0.5469  0.5469  0.4735
  0.5316  0.5316

 Free energy of the ion-electron system (eV)
  ---------------------------------------------------
  alpha Z        PSCENC =         0.18391265
  Ewald energy   TEWEN  =      -112.86085496
  -Hartree energ DENC   =      -747.27097566
  -exchange      EXHF   =         0.00000000
  -V(xc)+E(xc)   XCENC  =        34.89441129
  PAW double counting   =       832.20220138     -831.45650428
  entropy T*S    EENTRO =        -0.00000000
  eigenvalues    EBANDS =      -220.80447075
  atomic energy  EATOM  =      1042.59758728
  Solvation  Ediel_sol  =         0.00000000
  ---------------------------------------------------
  free energy    TOTEN  =        -2.51469306 eV

  energy without entropy =       -2.51469306  energy(sigma->0) =       -2.51469306


--------------------------------------------------------------------------------------------------------




--------------------------------------- Iteration      1(  63)  ---------------------------------------


    POTLOK:  cpu time      0.5833: real time      0.5868
    SETDIJ:  cpu time      0.4622: real time      0.4644
     EDDAV:  cpu time      0.1502: real time      0.1515
       DOS:  cpu time      0.0002: real time      0.0002
    CHARGE:  cpu time      0.0447: real time      0.0451
    MIXING:  cpu time      0.0216: real time      0.0217
    --------------------------------------------
      LOOP:  cpu time      1.2621: real time      1.2698

 eigenvalue-minimisations  :    56
 total energy-change (2. order) :-0.1069280E-01  (-0.2728147E-03)
 number of electron      10.0000003 magnetization       4.0045625
 augmentation part        4.8985778 magnetization       1.2552098

 Broyden mixing:
  rms(total) = 0.34195E-02    rms(broyden)= 0.33707E-02
  rms(prec ) = 0.35321E-02
  weight for this iteration     100.00

 eigenvalues of (default mixing * dielectric matrix)
  average eigenvalue GAMMA=   1.9208
 14.2518 12.0357 10.7052  2.7058  3.1394  3.1394  2.9715  2.9715  2.3782  2.3782
  2.0752  2.0752  1.6373  1.6373  1.3606  1.3606  0.8483  0.8483  0.9601  0.9601
  0.2875  0.2875  0.6238  0.6238  0.2479  0.7722  0.7722  0.4707  0.4707  0.3071
  0.6827  0.6827  0.5670  0.5670  0.3668  0.6891  0.5183  0.5183  0.4739  0.4739
  0.6196  0.5660  0.5660

 Free energy of the ion-electron system (eV)
  ---------------------------------------------------
  alpha Z        PSCENC =         0.18391265
  Ewald energy   TEWEN  =      -112.86085496
  -Hartree energ DENC   =      -747.20265020
  -exchange      EXHF   =         0.00000000
  -V(xc)+E(xc)   XCENC  =        34.88274819
  PAW double counting   =       831.87052800     -831.13448198
  entropy T*S    EENTRO =        -0.00000000
  eigenvalues    EBANDS =      -220.86217484
  atomic energy  EATOM  =      1042.59758728
  Solvation  Ediel_sol  =         0.00000000
  ---------------------------------------------------
  free energy    TOTEN  =        -2.52538586 eV

  energy without entropy =       -2.52538586  energy(sigma->0) =       -2.52538586


--------------------------------------------------------------------------------------------------------




--------------------------------------- Iteration      1(  64)  ---------------------------------------


    POTLOK:  cpu time      0.5802: real time      0.5846
    SETDIJ:  cpu time      0.4623: real time      0.4647
     EDDAV:  cpu time      0.1364: real time      0.1377
       DOS:  cpu time      0.0002: real time      0.0002
    CHARGE:  cpu time      0.0434: real time      0.0439
    MIXING:  cpu time      0.0222: real time      0.0224
    --------------------------------------------
      LOOP:  cpu time      1.2447: real time      1.2534

 eigenvalue-minimisations  :    50
 total energy-change (2. order) :-0.1317135E-02  (-0.3231205E-04)
 number of electron      10.0000003 magnetization       4.0029777
 augmentation part        4.8987602 magnetization       1.2538673

 Broyden mixing:
  rms(total) = 0.30719E-02    rms(broyden)= 0.30420E-02
  rms(prec ) = 0.31793E-02
  weight for this iteration     100.00

 eigenvalues of (default mixing * dielectric matrix)
  average eigenvalue GAMMA=   1.9651
 16.0588 13.3325 10.2639  2.5538  3.1915  3.1915  3.0152  3.0152  2.3891  2.3891
  2.2391  2.2391  1.6970  1.6970  1.2892  1.2892  0.9815  0.9815  0.9723  0.9723
  0.6314  0.6314  0.2779  0.2779  0.4551  0.4551  0.2309  0.7450  0.7450  0.6914
  0.6914  0.5700  0.5700  0.6648  0.6648  0.3287  0.6144  0.5191  0.5191  0.4259
  0.4259  0.5687  0.5002  0.5002

 Free energy of the ion-electron system (eV)
  ---------------------------------------------------
  alpha Z        PSCENC =         0.18391265
  Ewald energy   TEWEN  =      -112.86085496
  -Hartree energ DENC   =      -747.18677414
  -exchange      EXHF   =         0.00000000
  -V(xc)+E(xc)   XCENC  =        34.88138356
  PAW double counting   =       831.84609665     -831.11141605
  entropy T*S    EENTRO =        -0.00000000
  eigenvalues    EBANDS =      -220.87663798
  atomic energy  EATOM  =      1042.59758728
  Solvation  Ediel_sol  =         0.00000000
  ---------------------------------------------------
  free energy    TOTEN  =        -2.52670299 eV

  energy without entropy =       -2.52670299  energy(sigma->0) =       -2.52670299


--------------------------------------------------------------------------------------------------------




--------------------------------------- Iteration      1(  65)  ---------------------------------------


    POTLOK:  cpu time      0.5783: real time      0.5826
    SETDIJ:  cpu time      0.4625: real time      0.4647
     EDDAV:  cpu time      0.1347: real time      0.1360
       DOS:  cpu time      0.0002: real time      0.0002
    CHARGE:  cpu time      0.0438: real time      0.0443
    MIXING:  cpu time      0.0243: real time      0.0245
    --------------------------------------------
      LOOP:  cpu time      1.2437: real time      1.2523

 eigenvalue-minimisations  :    48
 total energy-change (2. order) :-0.3701223E-02  (-0.7108297E-04)
 number of electron      10.0000003 magnetization       4.0019174
 augmentation part        4.8990134 magnetization       1.2533426

 Broyden mixing:
  rms(total) = 0.23015E-02    rms(broyden)= 0.22696E-02
  rms(prec ) = 0.23619E-02
  weight for this iteration     100.00

 eigenvalues of (default mixing * dielectric matrix)
  average eigenvalue GAMMA=   1.7281
 13.7871  6.4200  6.5042  6.0363  2.3605  2.3605  2.5385  2.5385  2.5013  2.0901
  2.0901  1.3711  1.3711  1.1529  1.1529  1.0373  0.6894  0.6894  0.8528  0.8528
  0.4885  0.4885  0.7724  0.7724  0.4448  0.4448  0.6473  0.6473  0.6808  0.3317
  0.3995  0.3995  0.6087  0.5707  0.5707  0.5426  0.5426  0.4365  0.4365  0.5009

 Free energy of the ion-electron system (eV)
  ---------------------------------------------------
  alpha Z        PSCENC =         0.18391265
  Ewald energy   TEWEN  =      -112.86085496
  -Hartree energ DENC   =      -747.14612949
  -exchange      EXHF   =         0.00000000
  -V(xc)+E(xc)   XCENC  =        34.87674966
  PAW double counting   =       831.60910330     -830.87823602
  entropy T*S    EENTRO =        -0.00000000
  eigenvalues    EBANDS =      -220.91253664
  atomic energy  EATOM  =      1042.59758728
  Solvation  Ediel_sol  =         0.00000000
  ---------------------------------------------------
  free energy    TOTEN  =        -2.53040421 eV

  energy without entropy =       -2.53040421  energy(sigma->0) =       -2.53040421


--------------------------------------------------------------------------------------------------------




--------------------------------------- Iteration      1(  66)  ---------------------------------------


    POTLOK:  cpu time      0.5870: real time      0.5914
    SETDIJ:  cpu time      0.4622: real time      0.4645
     EDDAV:  cpu time      0.1215: real time      0.1227
       DOS:  cpu time      0.0002: real time      0.0002
    CHARGE:  cpu time      0.0468: real time      0.0475
    MIXING:  cpu time      0.0210: real time      0.0211
    --------------------------------------------
      LOOP:  cpu time      1.2386: real time      1.2474

 eigenvalue-minimisations  :    42
 total energy-change (2. order) :-0.1942109E-02  (-0.1304730E-03)
 number of electron      10.0000003 magnetization       4.0018077
 augmentation part        4.8992160 magnetization       1.2536570

 Broyden mixing:
  rms(total) = 0.16082E-02    rms(broyden)= 0.14870E-02
  rms(prec ) = 0.15215E-02
  weight for this iteration     100.00

 eigenvalues of (default mixing * dielectric matrix)
  average eigenvalue GAMMA=   1.7187
 13.5030  6.1769  6.1769  5.4901  3.6097  3.6097  2.2274  2.2274  2.3330  2.3330
  2.3535  1.3549  1.3549  1.2007  1.2007  0.5768  0.5768  1.0083  0.8165  0.8165
  0.6417  0.6417  0.4089  0.4089  0.8084  0.8084  0.3376  0.3376  0.4006  0.4006
  0.5040  0.5040  0.6904  0.6615  0.6615  0.5748  0.5748  0.5978  0.5978  0.4867
  0.4741

 Free energy of the ion-electron system (eV)
  ---------------------------------------------------
  alpha Z        PSCENC =         0.18391265
  Ewald energy   TEWEN  =      -112.86085496
  -Hartree energ DENC   =      -747.08513631
  -exchange      EXHF   =         0.00000000
  -V(xc)+E(xc)   XCENC  =        34.87256869
  PAW double counting   =       831.35061258     -830.62446606
  entropy T*S    EENTRO =        -0.00000000
  eigenvalues    EBANDS =      -220.96657019
  atomic energy  EATOM  =      1042.59758728
  Solvation  Ediel_sol  =         0.00000000
  ---------------------------------------------------
  free energy    TOTEN  =        -2.53234632 eV

  energy without entropy =       -2.53234632  energy(sigma->0) =       -2.53234632


--------------------------------------------------------------------------------------------------------




--------------------------------------- Iteration      1(  67)  ---------------------------------------


    POTLOK:  cpu time      0.5848: real time      0.5893
    SETDIJ:  cpu time      0.4623: real time      0.4647
     EDDAV:  cpu time      0.1181: real time      0.1192
       DOS:  cpu time      0.0002: real time      0.0002
    CHARGE:  cpu time      0.0475: real time      0.0480
    MIXING:  cpu time      0.0212: real time      0.0214
    --------------------------------------------
      LOOP:  cpu time      1.2340: real time      1.2428

 eigenvalue-minimisations  :    40
 total energy-change (2. order) :-0.7380566E-04  (-0.1111951E-04)
 number of electron      10.0000003 magnetization       4.0036080
 augmentation part        4.8994810 magnetization       1.2556254

 Broyden mixing:
  rms(total) = 0.10515E-02    rms(broyden)= 0.10020E-02
  rms(prec ) = 0.10192E-02
  weight for this iteration     100.00

 eigenvalues of (default mixing * dielectric matrix)
  average eigenvalue GAMMA=   1.8509
 12.2156 12.2156  8.2254  4.7227  4.7227  3.1587  2.2371  2.2371  2.3449  2.3449
  1.9861  1.2223  1.2223  1.2593  1.2593  1.0225  1.0225  1.0420  0.4225  0.4225
  0.6488  0.6488  0.5986  0.5986  0.3605  0.3605  0.7735  0.7488  0.7488  0.7216
  0.7216  0.4318  0.4318  0.3719  0.5442  0.5442  0.4494  0.4494  0.5929  0.5929
  0.5040  0.5882

 Free energy of the ion-electron system (eV)
  ---------------------------------------------------
  alpha Z        PSCENC =         0.18391265
  Ewald energy   TEWEN  =      -112.86085496
  -Hartree energ DENC   =      -747.06334446
  -exchange      EXHF   =         0.00000000
  -V(xc)+E(xc)   XCENC  =        34.87154764
  PAW double counting   =       831.31492631     -830.58950566
  entropy T*S    EENTRO =        -0.00000000
  eigenvalues    EBANDS =      -220.98668892
  atomic energy  EATOM  =      1042.59758728
  Solvation  Ediel_sol  =         0.00000000
  ---------------------------------------------------
  free energy    TOTEN  =        -2.53242013 eV

  energy without entropy =       -2.53242013  energy(sigma->0) =       -2.53242013


--------------------------------------------------------------------------------------------------------




--------------------------------------- Iteration      1(  68)  ---------------------------------------


    POTLOK:  cpu time      0.5741: real time      0.5782
    SETDIJ:  cpu time      0.4623: real time      0.4646
     EDDAV:  cpu time      0.1368: real time      0.1382
       DOS:  cpu time      0.0002: real time      0.0002
    CHARGE:  cpu time      0.0431: real time      0.0435
    MIXING:  cpu time      0.0217: real time      0.0219
    --------------------------------------------
      LOOP:  cpu time      1.2381: real time      1.2466

 eigenvalue-minimisations  :    50
 total energy-change (2. order) : 0.1371251E-02  (-0.5457309E-04)
 number of electron      10.0000003 magnetization       4.0029956
 augmentation part        4.8993109 magnetization       1.2547081

 Broyden mixing:
  rms(total) = 0.16025E-02    rms(broyden)= 0.15551E-02
  rms(prec ) = 0.15890E-02
  weight for this iteration     100.00

 eigenvalues of (default mixing * dielectric matrix)
  average eigenvalue GAMMA=   1.8356
 11.7860 11.7860  8.8819  4.9269  4.9269  3.3760  2.2317  2.2317  2.3591  2.3591
  1.8276  1.1301  1.1301  1.3699  1.3699  1.1847  1.1847  1.0521  0.4158  0.4158
  0.6691  0.6691  0.8024  0.4987  0.4987  0.7489  0.7489  0.7264  0.7264  0.6075
  0.6075  0.3585  0.3585  0.4023  0.4023  0.4202  0.4202  0.5451  0.5451  0.4822
  0.5828  0.5825  0.5825

 Free energy of the ion-electron system (eV)
  ---------------------------------------------------
  alpha Z        PSCENC =         0.18391265
  Ewald energy   TEWEN  =      -112.86085496
  -Hartree energ DENC   =      -747.08308773
  -exchange      EXHF   =         0.00000000
  -V(xc)+E(xc)   XCENC  =        34.87431993
  PAW double counting   =       831.38210941     -830.65386167
  entropy T*S    EENTRO =        -0.00000000
  eigenvalues    EBANDS =      -220.97117378
  atomic energy  EATOM  =      1042.59758728
  Solvation  Ediel_sol  =         0.00000000
  ---------------------------------------------------
  free energy    TOTEN  =        -2.53104888 eV

  energy without entropy =       -2.53104888  energy(sigma->0) =       -2.53104888


--------------------------------------------------------------------------------------------------------




--------------------------------------- Iteration      1(  69)  ---------------------------------------


    POTLOK:  cpu time      0.5908: real time      0.5951
    SETDIJ:  cpu time      0.4623: real time      0.4646
     EDDAV:  cpu time      0.1218: real time      0.1231
       DOS:  cpu time      0.0002: real time      0.0002
    CHARGE:  cpu time      0.0445: real time      0.0450
    MIXING:  cpu time      0.0220: real time      0.0222
    --------------------------------------------
      LOOP:  cpu time      1.2415: real time      1.2501

 eigenvalue-minimisations  :    42
 total energy-change (2. order) :-0.4112299E-03  (-0.8641405E-05)
 number of electron      10.0000003 magnetization       4.0028884
 augmentation part        4.8993386 magnetization       1.2546954

 Broyden mixing:
  rms(total) = 0.11502E-02    rms(broyden)= 0.11231E-02
  rms(prec ) = 0.11491E-02
  weight for this iteration     100.00

 eigenvalues of (default mixing * dielectric matrix)
  average eigenvalue GAMMA=   1.9053
 11.6546 11.6546 10.9384  5.6641  5.6641  3.6261  2.1257  2.1257  2.3706  2.3706
  1.8488  1.4029  1.4029  1.4192  1.4192  1.1371  1.1371  1.1063  0.4065  0.4065
  0.6409  0.6409  0.5969  0.5969  0.8109  0.8109  0.3555  0.3555  0.4133  0.4133
  0.7648  0.7648  0.3920  0.5512  0.5512  0.6895  0.6895  0.6529  0.6529  0.4558
  0.4558  0.5607  0.5607  0.5774

 Free energy of the ion-electron system (eV)
  ---------------------------------------------------
  alpha Z        PSCENC =         0.18391265
  Ewald energy   TEWEN  =      -112.86085496
  -Hartree energ DENC   =      -747.06756825
  -exchange      EXHF   =         0.00000000
  -V(xc)+E(xc)   XCENC  =        34.87302183
  PAW double counting   =       831.38141828     -830.65561380
  entropy T*S    EENTRO =        -0.00000000
  eigenvalues    EBANDS =      -220.98336313
  atomic energy  EATOM  =      1042.59758728
  Solvation  Ediel_sol  =         0.00000000
  ---------------------------------------------------
  free energy    TOTEN  =        -2.53146011 eV

  energy without entropy =       -2.53146011  energy(sigma->0) =       -2.53146011


--------------------------------------------------------------------------------------------------------




--------------------------------------- Iteration      1(  70)  ---------------------------------------


    POTLOK:  cpu time      0.5807: real time      0.5844
    SETDIJ:  cpu time      0.4623: real time      0.4647
     EDDAV:  cpu time      0.1238: real time      0.1249
       DOS:  cpu time      0.0002: real time      0.0002
    CHARGE:  cpu time      0.0454: real time      0.0459
    MIXING:  cpu time      0.0246: real time      0.0248
    --------------------------------------------
      LOOP:  cpu time      1.2369: real time      1.2450

 eigenvalue-minimisations  :    44
 total energy-change (2. order) : 0.4229978E-03  (-0.3473906E-04)
 number of electron      10.0000003 magnetization       4.0021204
 augmentation part        4.8993854 magnetization       1.2539438

 Broyden mixing:
  rms(total) = 0.10757E-02    rms(broyden)= 0.96712E-03
  rms(prec ) = 0.98881E-03
  weight for this iteration     100.00
  WARNING: grid for Broyden might be to small

 eigenvalues of (default mixing * dielectric matrix)
  average eigenvalue GAMMA=   1.9992
 15.3201 15.3201  5.3830  5.3830  4.4018  4.4018  2.3963  2.3963  2.1071  1.4782
  1.4782  1.5058  1.5058  1.2549  0.9486  0.9486  0.9650  0.5617  0.5617  0.6556
  0.6556  0.8385  0.5464  0.5464  0.2897  0.6911  0.6911  0.3528  0.3528  0.7128
  0.6022  0.6022  0.6285  0.6285  0.5630  0.4904  0.4904  0.3985  0.4560  0.4560

 Free energy of the ion-electron system (eV)
  ---------------------------------------------------
  alpha Z        PSCENC =         0.18391265
  Ewald energy   TEWEN  =      -112.86085496
  -Hartree energ DENC   =      -747.05643549
  -exchange      EXHF   =         0.00000000
  -V(xc)+E(xc)   XCENC  =        34.87294991
  PAW double counting   =       831.43959779     -830.71527895
  entropy T*S    EENTRO =        -0.00000000
  eigenvalues    EBANDS =      -220.99251533
  atomic energy  EATOM  =      1042.59758728
  Solvation  Ediel_sol  =         0.00000000
  ---------------------------------------------------
  free energy    TOTEN  =        -2.53103711 eV

  energy without entropy =       -2.53103711  energy(sigma->0) =       -2.53103711


--------------------------------------------------------------------------------------------------------




--------------------------------------- Iteration      1(  71)  ---------------------------------------


    POTLOK:  cpu time      0.5826: real time      0.5869
    SETDIJ:  cpu time      0.4623: real time      0.4647
     EDDAV:  cpu time      0.1346: real time      0.1358
       DOS:  cpu time      0.0002: real time      0.0002
    CHARGE:  cpu time      0.0444: real time      0.0448
    MIXING:  cpu time      0.0208: real time      0.0210
    --------------------------------------------
      LOOP:  cpu time      1.2448: real time      1.2533

 eigenvalue-minimisations  :    48
 total energy-change (2. order) :-0.4892727E-03  (-0.7542365E-05)
 number of electron      10.0000003 magnetization       4.0003794
 augmentation part        4.8994258 magnetization       1.2522705

 Broyden mixing:
  rms(total) = 0.69364E-03    rms(broyden)= 0.65253E-03
  rms(prec ) = 0.66687E-03
  weight for this iteration     100.00

 eigenvalues of (default mixing * dielectric matrix)
  average eigenvalue GAMMA=   2.0029
 15.9933 15.9933  5.2201  5.2201  4.4275  4.4275  2.2791  2.2791  2.1076  1.6980
  1.6980  1.5358  1.5358  1.3177  0.9477  0.9477  0.8085  0.8085  0.5760  0.5760
  0.8943  0.8638  0.5261  0.5261  0.3020  0.3483  0.3483  0.6555  0.6555  0.5879
  0.5879  0.3792  0.4265  0.4621  0.4621  0.7145  0.5303  0.6381  0.6381  0.5876
  0.5876

 Free energy of the ion-electron system (eV)
  ---------------------------------------------------
  alpha Z        PSCENC =         0.18391265
  Ewald energy   TEWEN  =      -112.86085496
  -Hartree energ DENC   =      -747.04831654
  -exchange      EXHF   =         0.00000000
  -V(xc)+E(xc)   XCENC  =        34.87193833
  PAW double counting   =       831.50915913     -830.78627639
  entropy T*S    EENTRO =        -0.00000000
  eigenvalues    EBANDS =      -220.99867588
  atomic energy  EATOM  =      1042.59758728
  Solvation  Ediel_sol  =         0.00000000
  ---------------------------------------------------
  free energy    TOTEN  =        -2.53152638 eV

  energy without entropy =       -2.53152638  energy(sigma->0) =       -2.53152638


--------------------------------------------------------------------------------------------------------




--------------------------------------- Iteration      1(  72)  ---------------------------------------


    POTLOK:  cpu time      0.5760: real time      0.5801
    SETDIJ:  cpu time      0.4622: real time      0.4646
     EDDAV:  cpu time      0.1214: real time      0.1227
       DOS:  cpu time      0.0002: real time      0.0002
    CHARGE:  cpu time      0.0466: real time      0.0472
    MIXING:  cpu time      0.0217: real time      0.0219
    --------------------------------------------
      LOOP:  cpu time      1.2281: real time      1.2366

 eigenvalue-minimisations  :    42
 total energy-change (2. order) :-0.9426847E-03  (-0.1771763E-04)
 number of electron      10.0000003 magnetization       4.0002974
 augmentation part        4.8995438 magnetization       1.2524049

 Broyden mixing:
  rms(total) = 0.45689E-03    rms(broyden)= 0.43184E-03
  rms(prec ) = 0.44193E-03
  weight for this iteration     100.00

 eigenvalues of (default mixing * dielectric matrix)
  average eigenvalue GAMMA=   1.9758
 19.6598 14.5077  4.1992  4.7926  4.7926  3.6308  1.6898  1.6898  2.2090  2.2090
  2.2251  1.7248  1.4347  1.4347  0.9213  0.9213  0.6581  0.6581  0.9438  0.6311
  0.6311  0.2427  0.2427  0.5364  0.5364  0.4664  0.4664  0.8103  0.8103  0.6469
  0.6469  0.5802  0.5802  0.4169  0.4169  0.4955  0.4955  0.5665  0.5665  0.6771
  0.6100  0.6100

 Free energy of the ion-electron system (eV)
  ---------------------------------------------------
  alpha Z        PSCENC =         0.18391265
  Ewald energy   TEWEN  =      -112.86085496
  -Hartree energ DENC   =      -747.02632930
  -exchange      EXHF   =         0.00000000
  -V(xc)+E(xc)   XCENC  =        34.86966298
  PAW double counting   =       831.52160644     -830.80170452
  entropy T*S    EENTRO =        -0.00000000
  eigenvalues    EBANDS =      -221.01634964
  atomic energy  EATOM  =      1042.59758728
  Solvation  Ediel_sol  =         0.00000000
  ---------------------------------------------------
  free energy    TOTEN  =        -2.53246907 eV

  energy without entropy =       -2.53246907  energy(sigma->0) =       -2.53246907


--------------------------------------------------------------------------------------------------------




--------------------------------------- Iteration      1(  73)  ---------------------------------------


    POTLOK:  cpu time      0.5680: real time      0.5724
    SETDIJ:  cpu time      0.4621: real time      0.4643
     EDDAV:  cpu time      0.1391: real time      0.1405
       DOS:  cpu time      0.0002: real time      0.0002
    CHARGE:  cpu time      0.0441: real time      0.0447
    MIXING:  cpu time      0.0218: real time      0.0220
    --------------------------------------------
      LOOP:  cpu time      1.2353: real time      1.2441

 eigenvalue-minimisations  :    52
 total energy-change (2. order) :-0.2243647E-04  (-0.4919859E-06)
 number of electron      10.0000003 magnetization       4.0000666
 augmentation part        4.8995949 magnetization       1.2521857

 Broyden mixing:
  rms(total) = 0.47065E-03    rms(broyden)= 0.46819E-03
  rms(prec ) = 0.48073E-03
  weight for this iteration     100.00

 eigenvalues of (default mixing * dielectric matrix)
  average eigenvalue GAMMA=   1.8865
 19.8186  8.1891  8.1891  4.6387  4.6387  3.7419  2.2678  2.1836  2.1836  1.6293
  1.6293  0.6527  1.5456  1.5456  1.2533  1.2533  0.9693  0.9693  0.6935  0.6935
  0.5852  0.5852  0.5704  0.5704  0.3344  0.3344  0.2842  0.2842  0.8052  0.8052
  0.6634  0.6634  0.5793  0.5793  0.3891  0.3891  0.7017  0.4565  0.5593  0.5593
  0.5982  0.5982  0.5364

 Free energy of the ion-electron system (eV)
  ---------------------------------------------------
  alpha Z        PSCENC =         0.18391265
  Ewald energy   TEWEN  =      -112.86085496
  -Hartree energ DENC   =      -747.02536549
  -exchange      EXHF   =         0.00000000
  -V(xc)+E(xc)   XCENC  =        34.86958779
  PAW double counting   =       831.52334717     -830.80355361
  entropy T*S    EENTRO =        -0.00000000
  eigenvalues    EBANDS =      -221.01715233
  atomic energy  EATOM  =      1042.59758728
  Solvation  Ediel_sol  =         0.00000000
  ---------------------------------------------------
  free energy    TOTEN  =        -2.53249150 eV

  energy without entropy =       -2.53249150  energy(sigma->0) =       -2.53249150


--------------------------------------------------------------------------------------------------------




--------------------------------------- Iteration      1(  74)  ---------------------------------------


    POTLOK:  cpu time      0.5833: real time      0.5885
    SETDIJ:  cpu time      0.4623: real time      0.4645
     EDDAV:  cpu time      0.1370: real time      0.1382
       DOS:  cpu time      0.0002: real time      0.0001
    CHARGE:  cpu time      0.0438: real time      0.0443
    MIXING:  cpu time      0.0221: real time      0.0223
    --------------------------------------------
      LOOP:  cpu time      1.2485: real time      1.2580

 eigenvalue-minimisations  :    50
 total energy-change (2. order) :-0.2185135E-04  (-0.3284820E-06)
 number of electron      10.0000003 magnetization       4.0002088
 augmentation part        4.8996376 magnetization       1.2523722

 Broyden mixing:
  rms(total) = 0.53964E-03    rms(broyden)= 0.53956E-03
  rms(prec ) = 0.55837E-03
  weight for this iteration     100.00

 eigenvalues of (default mixing * dielectric matrix)
  average eigenvalue GAMMA=   1.8666
 19.6409  8.4170  8.4170  4.5095  4.5095  3.7895  2.2656  2.1946  2.1946  1.5543
  1.5543  0.8488  0.8488  1.5435  1.5435  1.2572  1.2572  0.9345  0.9345  0.8841
  0.8502  0.5894  0.5894  0.6866  0.6866  0.2821  0.2821  0.5685  0.5685  0.2649
  0.6889  0.6889  0.6943  0.3468  0.5507  0.5507  0.5187  0.5187  0.5926  0.5926
  0.5639  0.4774  0.4403  0.4403

 Free energy of the ion-electron system (eV)
  ---------------------------------------------------
  alpha Z        PSCENC =         0.18391265
  Ewald energy   TEWEN  =      -112.86085496
  -Hartree energ DENC   =      -747.01935119
  -exchange      EXHF   =         0.00000000
  -V(xc)+E(xc)   XCENC  =        34.86918031
  PAW double counting   =       831.51302759     -830.79380360
  entropy T*S    EENTRO =        -0.00000000
  eigenvalues    EBANDS =      -221.02221143
  atomic energy  EATOM  =      1042.59758728
  Solvation  Ediel_sol  =         0.00000000
  ---------------------------------------------------
  free energy    TOTEN  =        -2.53251336 eV

  energy without entropy =       -2.53251336  energy(sigma->0) =       -2.53251336


--------------------------------------------------------------------------------------------------------




--------------------------------------- Iteration      1(  75)  ---------------------------------------


    POTLOK:  cpu time      0.5875: real time      0.5920
    SETDIJ:  cpu time      0.4625: real time      0.4649
     EDDAV:  cpu time      0.1345: real time      0.1358
       DOS:  cpu time      0.0002: real time      0.0002
    CHARGE:  cpu time      0.0433: real time      0.0437
    MIXING:  cpu time      0.0244: real time      0.0246
    --------------------------------------------
      LOOP:  cpu time      1.2525: real time      1.2612

 eigenvalue-minimisations  :    48
 total energy-change (2. order) : 0.3343395E-04  (-0.3019474E-06)
 number of electron      10.0000003 magnetization       4.0003849
 augmentation part        4.8996064 magnetization       1.2525189

 Broyden mixing:
  rms(total) = 0.48108E-03    rms(broyden)= 0.48033E-03
  rms(prec ) = 0.49522E-03
  weight for this iteration     100.00

 eigenvalues of (default mixing * dielectric matrix)
  average eigenvalue GAMMA=   1.5386
  7.9562  7.9562  7.3953  4.0817  2.4269  2.4269  2.2631  2.2631  1.5744  1.5744
  1.4564  1.2770  1.2770  1.2735  1.2735  0.9576  0.9576  0.2834  0.2834  0.2840
  0.6129  0.6129  0.7541  0.7541  0.4159  0.4159  0.8521  0.4003  0.5639  0.5639
  0.7226  0.7226  0.7240  0.7240  0.6291  0.6291  0.4889  0.5280  0.5935  0.5935

 Free energy of the ion-electron system (eV)
  ---------------------------------------------------
  alpha Z        PSCENC =         0.18391265
  Ewald energy   TEWEN  =      -112.86085496
  -Hartree energ DENC   =      -747.02343867
  -exchange      EXHF   =         0.00000000
  -V(xc)+E(xc)   XCENC  =        34.86949453
  PAW double counting   =       831.52197030     -830.80225176
  entropy T*S    EENTRO =        -0.00000000
  eigenvalues    EBANDS =      -221.01889929
  atomic energy  EATOM  =      1042.59758728
  Solvation  Ediel_sol  =         0.00000000
  ---------------------------------------------------
  free energy    TOTEN  =        -2.53247992 eV

  energy without entropy =       -2.53247992  energy(sigma->0) =       -2.53247992


--------------------------------------------------------------------------------------------------------




--------------------------------------- Iteration      1(  76)  ---------------------------------------


    POTLOK:  cpu time      0.5715: real time      0.5756
    SETDIJ:  cpu time      0.4629: real time      0.4652
     EDDAV:  cpu time      0.1370: real time      0.1382
       DOS:  cpu time      0.0002: real time      0.0002
    CHARGE:  cpu time      0.0436: real time      0.0441
    MIXING:  cpu time      0.0208: real time      0.0209
    --------------------------------------------
      LOOP:  cpu time      1.2359: real time      1.2442

 eigenvalue-minimisations  :    50
 total energy-change (2. order) : 0.2592699E-04  (-0.1014399E-05)
 number of electron      10.0000003 magnetization       4.0002498
 augmentation part        4.8995907 magnetization       1.2523757

 Broyden mixing:
  rms(total) = 0.45610E-03    rms(broyden)= 0.45021E-03
  rms(prec ) = 0.46158E-03
  weight for this iteration     100.00

 eigenvalues of (default mixing * dielectric matrix)
  average eigenvalue GAMMA=   1.6077
  9.7609  9.7609  6.7809  3.9306  2.5356  2.5356  2.4777  2.4777  1.5843  1.5843
  1.7000  1.3430  1.3430  1.0730  1.0730  1.0888  0.8862  0.8862  0.8282  0.8036
  0.8036  0.7157  0.7157  0.6272  0.6272  0.2556  0.3370  0.3370  0.4501  0.4501
  0.5806  0.5806  0.3836  0.4133  0.6365  0.6365  0.6348  0.6348  0.5896  0.5256
  0.5256

 Free energy of the ion-electron system (eV)
  ---------------------------------------------------
  alpha Z        PSCENC =         0.18391265
  Ewald energy   TEWEN  =      -112.86085496
  -Hartree energ DENC   =      -747.02882464
  -exchange      EXHF   =         0.00000000
  -V(xc)+E(xc)   XCENC  =        34.86990238
  PAW double counting   =       831.55192399     -830.83128612
  entropy T*S    EENTRO =        -0.00000000
  eigenvalues    EBANDS =      -221.01481457
  atomic energy  EATOM  =      1042.59758728
  Solvation  Ediel_sol  =         0.00000000
  ---------------------------------------------------
  free energy    TOTEN  =        -2.53245399 eV

  energy without entropy =       -2.53245399  energy(sigma->0) =       -2.53245399


--------------------------------------------------------------------------------------------------------




--------------------------------------- Iteration      1(  77)  ---------------------------------------


    POTLOK:  cpu time      0.5771: real time      0.5814
    SETDIJ:  cpu time      0.4623: real time      0.4645
     EDDAV:  cpu time      0.1032: real time      0.1042
       DOS:  cpu time      0.0002: real time      0.0002
    CHARGE:  cpu time      0.0441: real time      0.0447
    MIXING:  cpu time      0.0212: real time      0.0214
    --------------------------------------------
      LOOP:  cpu time      1.2081: real time      1.2163

 eigenvalue-minimisations  :    32
 total energy-change (2. order) :-0.5766978E-04  (-0.1075061E-05)
 number of electron      10.0000003 magnetization       4.0001064
 augmentation part        4.8994855 magnetization       1.2521579

 Broyden mixing:
  rms(total) = 0.53133E-03    rms(broyden)= 0.52803E-03
  rms(prec ) = 0.53241E-03
  weight for this iteration     100.00

 eigenvalues of (default mixing * dielectric matrix)
  average eigenvalue GAMMA=   1.6685
  9.6259  9.6259  5.1782  5.1782  5.5880  3.2022  3.2022  2.0580  2.0580  1.4743
  1.4743  1.3483  1.3483  1.0818  1.0818  1.0781  0.6407  0.6407  0.8507  0.8507
  0.2776  0.3050  0.3050  0.4369  0.4369  0.8471  0.8471  0.7443  0.7443  0.5939
  0.5939  0.4038  0.7085  0.7085  0.5988  0.5988  0.5369  0.5369  0.6069  0.6069
  0.5265  0.5265

 Free energy of the ion-electron system (eV)
  ---------------------------------------------------
  alpha Z        PSCENC =         0.18391265
  Ewald energy   TEWEN  =      -112.86085496
  -Hartree energ DENC   =      -747.03478596
  -exchange      EXHF   =         0.00000000
  -V(xc)+E(xc)   XCENC  =        34.87017372
  PAW double counting   =       831.57399307     -830.85341900
  entropy T*S    EENTRO =        -0.00000000
  eigenvalues    EBANDS =      -221.00911846
  atomic energy  EATOM  =      1042.59758728
  Solvation  Ediel_sol  =         0.00000000
  ---------------------------------------------------
  free energy    TOTEN  =        -2.53251166 eV

  energy without entropy =       -2.53251166  energy(sigma->0) =       -2.53251166


--------------------------------------------------------------------------------------------------------




--------------------------------------- Iteration      1(  78)  ---------------------------------------


    POTLOK:  cpu time      0.5905: real time      0.5947
    SETDIJ:  cpu time      0.4622: real time      0.4644
     EDDAV:  cpu time      0.1344: real time      0.1357
       DOS:  cpu time      0.0002: real time      0.0002
    CHARGE:  cpu time      0.0434: real time      0.0439
    MIXING:  cpu time      0.0219: real time      0.0221
    --------------------------------------------
      LOOP:  cpu time      1.2526: real time      1.2611

 eigenvalue-minimisations  :    48
 total energy-change (2. order) : 0.3143481E-04  (-0.5830382E-05)
 number of electron      10.0000003 magnetization       4.0000958
 augmentation part        4.8994168 magnetization       1.2520949

 Broyden mixing:
  rms(total) = 0.83201E-03    rms(broyden)= 0.81583E-03
  rms(prec ) = 0.82260E-03
  weight for this iteration     100.00

 eigenvalues of (default mixing * dielectric matrix)
  average eigenvalue GAMMA=   1.6655
  9.5698  9.5698  5.8887  5.8887  5.6016  3.1804  3.1804  2.0511  2.0511  1.4566
  1.4566  1.3479  1.3479  1.0842  1.0842  1.0768  0.8405  0.8405  0.5937  0.5937
  0.4929  0.4929  0.2167  0.2167  0.8389  0.8389  0.7576  0.7576  0.3812  0.3812
  0.5705  0.5705  0.4038  0.7025  0.7025  0.5881  0.5881  0.5662  0.5662  0.6030
  0.6030  0.5531  0.5211

 Free energy of the ion-electron system (eV)
  ---------------------------------------------------
  alpha Z        PSCENC =         0.18391265
  Ewald energy   TEWEN  =      -112.86085496
  -Hartree energ DENC   =      -747.03749291
  -exchange      EXHF   =         0.00000000
  -V(xc)+E(xc)   XCENC  =        34.87049964
  PAW double counting   =       831.58527111     -830.86474069
  entropy T*S    EENTRO =        -0.00000000
  eigenvalues    EBANDS =      -221.00666235
  atomic energy  EATOM  =      1042.59758728
  Solvation  Ediel_sol  =         0.00000000
  ---------------------------------------------------
  free energy    TOTEN  =        -2.53248023 eV

  energy without entropy =       -2.53248023  energy(sigma->0) =       -2.53248023


--------------------------------------------------------------------------------------------------------




--------------------------------------- Iteration      1(  79)  ---------------------------------------


    POTLOK:  cpu time      0.5816: real time      0.5861
    SETDIJ:  cpu time      0.4624: real time      0.4648
     EDDAV:  cpu time      0.1397: real time      0.1411
       DOS:  cpu time      0.0001: real time      0.0001
    --------------------------------------------
      LOOP:  cpu time      1.1838: real time      1.1921

 eigenvalue-minimisations  :    52
 total energy-change (2. order) :-0.6835048E-06  (-0.4482691E-06)
 number of electron      10.0000003 magnetization       4.0000958
 augmentation part        4.8994168 magnetization       1.2520949

 Free energy of the ion-electron system (eV)
  ---------------------------------------------------
  alpha Z        PSCENC =         0.18391265
  Ewald energy   TEWEN  =      -112.86085496
  -Hartree energ DENC   =      -747.03766257
  -exchange      EXHF   =         0.00000000
  -V(xc)+E(xc)   XCENC  =        34.87051155
  PAW double counting   =       831.58456428     -830.86404363
  entropy T*S    EENTRO =        -0.00000000
  eigenvalues    EBANDS =      -221.00649551
  atomic energy  EATOM  =      1042.59758728
  Solvation  Ediel_sol  =         0.00000000
  ---------------------------------------------------
  free energy    TOTEN  =        -2.53248091 eV

  energy without entropy =       -2.53248091  energy(sigma->0) =       -2.53248091


--------------------------------------------------------------------------------------------------------




 average (electrostatic) potential at core
  the test charge radii are     1.0397
  (the norm of the test charge is              1.0000)
       1 -58.5774
 
 
 
 E-fermi :  -2.1686     XC(G=0):  -0.1564     alpha+bet : -0.0401

 Fermi energy:        -2.1686134513

 spin component 1

 k-point     1 :       0.0000    0.0000    0.0000
  band No.  band energies     occupation 
      1     -35.9544      1.00000
      2     -35.9544      1.00000
      3     -35.9536      1.00000
      4      -4.0327      1.00000
      5      -2.5788      1.00000
      6      -2.5783      1.00000
      7      -2.5778      1.00000
      8      -1.7594      0.00000
      9      -1.7584      0.00000
     10      -1.2703      0.00000
 Fermi energy:        -2.1686134513

 spin component 2

 k-point     1 :       0.0000    0.0000    0.0000
  band No.  band energies     occupation 
      1     -33.7927      1.00000
      2     -33.7920      1.00000
      3     -33.7918      1.00000
      4      -1.4591      0.00000
      5      -0.3171      0.00000
      6      -0.3137      0.00000
      7       0.0522      0.00000
      8       0.2788      0.00000
      9       0.4323      0.00000
     10       0.4542      0.00000


--------------------------------------------------------------------------------------------------------


 soft charge-density along one line, spin component           1
         0         1         2         3         4         5         6         7         8         9
 total charge-density along one line
 
 soft charge-density along one line, spin component           2
         0         1         2         3         4         5         6         7         8         9
 total charge-density along one line
 
 pseudopotential strength for first ion, spin component:           1
-34.325  -0.000   0.000   9.286   0.000  -0.000   0.000   0.000
 -0.000 -34.325  -0.000   0.000   9.287   0.000  -0.000  -0.000
  0.000  -0.000 -34.325  -0.000   0.000   9.287   0.000  -0.000
  9.286   0.000  -0.000   3.035  -0.000  -0.000  -0.000  -0.000
  0.000   9.287   0.000  -0.000   3.035  -0.000   0.000   0.000
 -0.000   0.000   9.287  -0.000  -0.000   3.035  -0.000   0.000
  0.000  -0.000   0.000  -0.000   0.000  -0.000  -6.475  -0.093
  0.000  -0.000  -0.000  -0.000   0.000   0.000  -0.093  -6.620
 -0.000   0.000  -0.000   0.000  -0.000   0.000  -0.025   0.004
 -0.000   0.000   0.000   0.000  -0.000  -0.000   0.040  -0.028
 -0.000   0.000   0.000   0.000  -0.000  -0.000  -0.092   0.043
  0.000  -0.000   0.000  -0.000   0.000  -0.000  -7.183  -0.111
  0.000  -0.000  -0.000  -0.000   0.000   0.000  -0.111  -7.357
 -0.000   0.000  -0.000   0.000  -0.000   0.000  -0.030   0.004
 -0.000   0.000   0.000   0.000  -0.000  -0.000   0.049  -0.034
 -0.000   0.000   0.000   0.000  -0.000  -0.000  -0.110   0.051
 -0.000  -0.000  -0.000   0.000   0.000   0.000  -0.000   0.000
 -0.000  -0.000  -0.000  -0.000   0.000   0.000  -0.000   0.000
 pseudopotential strength for first ion, spin component:           2
-33.090  -0.000  -0.000   8.595   0.000   0.000   0.000   0.000
 -0.000 -33.090  -0.000   0.000   8.595   0.000   0.000   0.000
 -0.000  -0.000 -33.090   0.000   0.000   8.595  -0.000   0.000
  8.595   0.000   0.000   3.286  -0.000  -0.000  -0.000  -0.000
  0.000   8.595   0.000  -0.000   3.286  -0.000  -0.000  -0.000
  0.000   0.000   8.595  -0.000  -0.000   3.286   0.000  -0.000
  0.000   0.000  -0.000  -0.000  -0.000   0.000  -5.715   0.113
  0.000   0.000   0.000  -0.000  -0.000  -0.000   0.113  -5.538
  0.000   0.000   0.000  -0.000  -0.000   0.000   0.030  -0.004
  0.000   0.000   0.000  -0.000  -0.000  -0.000  -0.050   0.034
  0.000  -0.000   0.000  -0.000   0.000  -0.000   0.112  -0.052
  0.000   0.000  -0.000  -0.000  -0.000   0.000  -6.281   0.135
  0.000   0.000   0.000  -0.000  -0.000  -0.000   0.135  -6.070
  0.000   0.000   0.000  -0.000  -0.000   0.000   0.036  -0.005
  0.000   0.000   0.000  -0.000  -0.000  -0.000  -0.059   0.041
  0.000  -0.000   0.000  -0.000   0.000  -0.000   0.134  -0.062
  0.000  -0.000  -0.000  -0.000   0.000   0.000   0.000   0.000
  0.000  -0.000  -0.000  -0.000   0.000   0.000   0.000   0.000
 total augmentation occupancy for first ion, spin component:           1
  2.000  -0.000   0.000   0.002  -0.000   0.000   0.000   0.000   0.000   0.000   0.000  -0.000  -0.000  -0.000  -0.000  -0.000
 -0.000   2.000  -0.000  -0.000   0.002  -0.000  -0.000  -0.000   0.000  -0.000   0.000   0.000   0.000  -0.000   0.000  -0.000
  0.000  -0.000   2.000   0.000  -0.000   0.002  -0.000  -0.000  -0.000   0.000   0.000   0.000   0.000   0.000  -0.000  -0.000
  0.002  -0.000   0.000   0.000  -0.000   0.000  -0.000  -0.000   0.000  -0.000   0.000   0.000   0.000  -0.000   0.000  -0.000
 -0.000   0.002  -0.000  -0.000   0.000  -0.000  -0.000  -0.000   0.000  -0.000  -0.000   0.000   0.000  -0.000   0.000   0.000
  0.000  -0.000   0.002   0.000  -0.000   0.000  -0.000   0.000   0.000  -0.000  -0.000   0.000  -0.000  -0.000   0.000   0.000
  0.000  -0.000  -0.000  -0.000  -0.000  -0.000   0.400   0.366   0.097  -0.161   0.362  -0.021  -0.019  -0.005   0.008  -0.019
  0.000  -0.000  -0.000  -0.000  -0.000   0.000   0.366   0.972  -0.014   0.112  -0.168  -0.019  -0.051   0.001  -0.006   0.009
  0.000   0.000  -0.000   0.000   0.000   0.000   0.097  -0.014   0.581  -0.539  -0.179  -0.005   0.001  -0.031   0.028   0.009
  0.000  -0.000   0.000  -0.000  -0.000  -0.000  -0.161   0.112  -0.539   0.557  -0.056   0.008  -0.006   0.028  -0.029   0.003
  0.000   0.000   0.000   0.000  -0.000  -0.000   0.362  -0.168  -0.179  -0.056   0.946  -0.019   0.009   0.009   0.003  -0.050
 -0.000   0.000   0.000   0.000   0.000   0.000  -0.021  -0.019  -0.005   0.008  -0.019   0.001   0.001   0.000  -0.000   0.001
 -0.000   0.000   0.000   0.000   0.000  -0.000  -0.019  -0.051   0.001  -0.006   0.009   0.001   0.003  -0.000   0.000  -0.000
 -0.000  -0.000   0.000  -0.000  -0.000  -0.000  -0.005   0.001  -0.031   0.028   0.009   0.000  -0.000   0.002  -0.001  -0.000
 -0.000   0.000  -0.000   0.000   0.000   0.000   0.008  -0.006   0.028  -0.029   0.003  -0.000   0.000  -0.001   0.002  -0.000
 -0.000  -0.000  -0.000  -0.000   0.000   0.000  -0.019   0.009   0.009   0.003  -0.050   0.001  -0.000  -0.000  -0.000   0.003
  0.000   0.000   0.000  -0.000  -0.000  -0.000   0.000   0.000  -0.000  -0.000  -0.000  -0.000  -0.000   0.000   0.000   0.000
 -0.000  -0.000  -0.000  -0.000  -0.000  -0.000  -0.000  -0.000   0.000  -0.000   0.000   0.000   0.000   0.000   0.000  -0.000
 total augmentation occupancy for first ion, spin component:           2
  0.001  -0.000   0.000   0.003  -0.000   0.000  -0.000  -0.000   0.000  -0.000   0.000   0.000   0.000   0.000   0.000  -0.000
 -0.000   0.001  -0.000  -0.000   0.003  -0.000  -0.000   0.000   0.000  -0.000   0.000   0.000  -0.000  -0.000   0.000  -0.000
  0.000  -0.000   0.001   0.000  -0.000   0.003   0.000  -0.000  -0.000   0.000   0.000  -0.000   0.000   0.000  -0.000  -0.000
  0.003  -0.000   0.000   0.000  -0.000   0.000  -0.000  -0.000   0.000  -0.000   0.000   0.000   0.000  -0.000   0.000  -0.000
 -0.000   0.003  -0.000  -0.000   0.000  -0.000  -0.000  -0.000   0.000  -0.000  -0.000   0.000   0.000  -0.000   0.000   0.000
  0.000  -0.000   0.003   0.000  -0.000   0.000  -0.000   0.000   0.000  -0.000  -0.000   0.000  -0.000  -0.000   0.000   0.000
 -0.000  -0.000   0.000  -0.000  -0.000  -0.000   0.400   0.366   0.097  -0.161   0.362  -0.021  -0.019  -0.005   0.008  -0.019
 -0.000   0.000  -0.000  -0.000  -0.000   0.000   0.366   0.972  -0.014   0.112  -0.168  -0.019  -0.051   0.001  -0.006   0.009
  0.000   0.000  -0.000   0.000   0.000   0.000   0.097  -0.014   0.581  -0.539  -0.179  -0.005   0.001  -0.031   0.028   0.009
 -0.000  -0.000   0.000  -0.000  -0.000  -0.000  -0.161   0.112  -0.539   0.557  -0.056   0.008  -0.006   0.028  -0.029   0.003
  0.000   0.000   0.000   0.000  -0.000  -0.000   0.362  -0.168  -0.179  -0.056   0.946  -0.019   0.009   0.009   0.003  -0.050
  0.000   0.000  -0.000   0.000   0.000   0.000  -0.021  -0.019  -0.005   0.008  -0.019   0.001   0.001   0.000  -0.000   0.001
  0.000  -0.000   0.000   0.000   0.000  -0.000  -0.019  -0.051   0.001  -0.006   0.009   0.001   0.003  -0.000   0.000  -0.000
  0.000  -0.000   0.000  -0.000  -0.000  -0.000  -0.005   0.001  -0.031   0.028   0.009   0.000  -0.000   0.002  -0.001  -0.000
  0.000   0.000  -0.000   0.000   0.000   0.000   0.008  -0.006   0.028  -0.029   0.003  -0.000   0.000  -0.001   0.002  -0.000
 -0.000  -0.000  -0.000  -0.000   0.000   0.000  -0.019   0.009   0.009   0.003  -0.050   0.001  -0.000  -0.000  -0.000   0.003
  0.000   0.000   0.000  -0.000  -0.000  -0.000   0.000   0.000  -0.000  -0.000  -0.000  -0.000  -0.000   0.000   0.000   0.000
 -0.000  -0.000  -0.000  -0.000  -0.000  -0.000  -0.000  -0.000   0.000  -0.000   0.000   0.000   0.000   0.000   0.000  -0.000


------------------------ aborting loop because EDIFF is reached ----------------------------------------


    CHARGE:  cpu time      0.0442: real time      0.0448
    FORLOC:  cpu time      0.0035: real time      0.0036
    FORNL :  cpu time      0.0091: real time      0.0091
    STRESS:  cpu time      0.0350: real time      0.0353
    FORCOR:  cpu time      0.5590: real time      0.5622
    FORHAR:  cpu time      0.0544: real time      0.0547
    MIXING:  cpu time      0.0236: real time      0.0238
    OFIELD:  cpu time      0.0001: real time      0.0001

  FORCE on cell =-STRESS in cart. coord.  units (eV):
  Direction    XX          YY          ZZ          XY          YZ          ZX
  --------------------------------------------------------------------------------------
  Alpha Z     0.18391     0.18391     0.18391
  Ewald     -36.98693   -37.62075   -38.25318     0.00000     0.00000     0.00000
  Hartree   249.63291   249.00749   248.38593    -0.00103    -0.00540    -0.00108
  E(xc)     -47.93752   -47.93752   -47.93746    -0.00003    -0.00003    -0.00002
  Local    -276.44264  -275.18231  -273.92988     0.00224     0.01044     0.00260
  n-local   -33.14322   -33.14263   -33.14314     0.00071     0.00058    -0.00011
  augment    48.97426    48.97279    48.97410    -0.00082    -0.00252    -0.00084
  Kinetic    95.70242    95.70152    95.70250    -0.00088    -0.00316    -0.00102
  Fock        0.00000     0.00000     0.00000     0.00000     0.00000     0.00000
  -------------------------------------------------------------------------------------
  Total      -0.01680    -0.01750    -0.01721     0.00018    -0.00009    -0.00047
  in kB      -0.00454    -0.00473    -0.00465     0.00005    -0.00002    -0.00013
  external pressure =       -0.00 kB  Pullay stress =        0.00 kB


 VOLUME and BASIS-vectors are now :
 -----------------------------------------------------------------------------
  energy-cutoff  :      520.00
  volume of cell :     5929.56
      direct lattice vectors                 reciprocal lattice vectors
    18.000000000  0.000000000  0.000000000     0.055555556 -0.000000000  0.000000000
     0.000000000 18.100000000  0.000000000     0.000000000  0.055248619  0.000000000
     0.000000000  0.000000000 18.200000000    -0.000000000 -0.000000000  0.054945055

  length of vectors
    18.000000000 18.100000000 18.200000000     0.055555556  0.055248619  0.054945055


 FORCES acting on ions
    electron-ion (+dipol)            ewald-force                    non-local-force                 convergence-correction
 -----------------------------------------------------------------------------------------------
   -.417E-03 -.867E-04 -.150E-03   0.164E-16 -.217E-16 0.166E-17   -.187E-03 -.533E-04 -.910E-04   0.602E-03 0.118E-03 0.245E-03
 -----------------------------------------------------------------------------------------------
   -.417E-03 -.867E-04 -.150E-03   0.164E-16 -.217E-16 0.166E-17   -.187E-03 -.533E-04 -.910E-04   0.602E-03 0.118E-03 0.245E-03
 
 
 POSITION                                       TOTAL-FORCE (eV/Angst)
 -----------------------------------------------------------------------------------
      0.00000      0.00000      0.00000        -0.000001     -0.000022      0.000004
 -----------------------------------------------------------------------------------
    total drift:                               -0.000001     -0.000022      0.000004


--------------------------------------------------------------------------------------------------------



  FREE ENERGIE OF THE ION-ELECTRON SYSTEM (eV)
  ---------------------------------------------------
  free  energy   TOTEN  =        -2.53248091 eV

  energy  without entropy=       -2.53248091  energy(sigma->0) =       -2.53248091
 


--------------------------------------------------------------------------------------------------------


    POTLOK:  cpu time      1.0389: real time      1.0402


--------------------------------------------------------------------------------------------------------


     LOOP+:  cpu time     96.8815: real time     97.5585
    4ORBIT:  cpu time      0.0000: real time      0.0000

 total amount of memory used by VASP MPI-rank0    81989. kBytes
=======================================================================

   base      :      30000. kBytes
   nonl-proj :        396. kBytes
   fftplans  :      14937. kBytes
   grid      :      36243. kBytes
   one-center:         15. kBytes
   wavefun   :        398. kBytes
 
  
  
 General timing and accounting informations for this job:
 ========================================================
  
                  Total CPU time used (sec):       99.261
                            User time (sec):       88.637
                          System time (sec):       10.624
                         Elapsed time (sec):      100.481
  
                   Maximum memory used (kb):      500408.
                   Average memory used (kb):          N/A
  
                          Minor page faults:       277172
                          Major page faults:           40
                 Voluntary context switches:         1559
