 vasp.6.4.2 20Jul23 (build Aug 07 2024 12:45:50) gamma-only                     
  
 executed on             LinuxIFC date 2026.09.30  12:34:46
 running   64 mpi-ranks, on    1 nodes
 distrk:  each k-point on   64 cores,    1 groups
 distr:  one band on NCORE=  32 cores,    2 groups


--------------------------------------------------------------------------------------------------------


 INCAR:
   ALGO = Normal
   EDIFF = 1e-05
   EFERMI = Midgap
   ENCUT = 520.0
   GGA = Pe
   GGA_COMPAT = False
   IBRION = -1
   ISMEAR = 0
   ISPIN = 2
   ISYM = 0
   LAECHG = False
   LASPH = True
   LCHARG = False
   LMAXMIX = 6
   LMIXTAU = True
   LREAL = False
   LWAVE = False
   MAGMOM = 1*2.0
   NCORE = 32
   NELM = 400
   NSW = 0
   PREC = Accurate
   SIGMA = 0.05
   SYSTEM = S_atom_ispin2

 POTCAR:    PAW_PBE S 06Sep2000                   
 -----------------------------------------------------------------------------
|                                                                             |
|           W    W    AA    RRRRR   N    N  II  N    N   GGGG   !!!           |
|           W    W   A  A   R    R  NN   N  II  NN   N  G    G  !!!           |
|           W    W  A    A  R    R  N N  N  II  N N  N  G       !!!           |
|           W WW W  AAAAAA  RRRRR   N  N N  II  N  N N  G  GGG   !            |
|           WW  WW  A    A  R   R   N   NN  II  N   NN  G    G                |
|           W    W  A    A  R    R  N    N  II  N    N   GGGG   !!!           |
|                                                                             |
|     For optimal performance we recommend to set                             |
|       NCORE = 2 up to number-of-cores-per-socket                            |
|     NCORE specifies how many cores store one orbital (NPAR=cpu/NCORE).      |
|     This setting can greatly improve the performance of VASP for DFT.       |
|     The default, NCORE=1 might be grossly inefficient on modern             |
|     multi-core architectures or massively parallel machines. Do your        |
|     own testing! More info at https://www.vasp.at/wiki/index.php/NCORE      |
|     Unfortunately you need to use the default for GW and RPA                |
|     calculations (for HF NCORE is supported but not extensively tested      |
|     yet).                                                                   |
|                                                                             |
 -----------------------------------------------------------------------------

 POTCAR:    PAW_PBE S 06Sep2000                   
   SHA256 =  0fc7481fb0695f01bdc6462160264c5c84044ae9ec85a907d398b887a2bc3132 S/POTCAR              
   COPYR  = (c) Copyright 06Sep2000 Georg Kresse                                                    
   COPYR  = This file is part of the software VASP. Any use, copying, and all other rights are regul
   COPYR  = If you do not have a valid VASP license, you may not use, copy or distribute this file. 
   VRHFIN =S : s2p4                                                                                 
   LEXCH  = PE                                                                                      
   EATOM  =   276.8230 eV,   20.3459 Ry                                                             
                                                                                                    
   TITEL  = PAW_PBE S 06Sep2000                                                                     
   LULTRA =        F    use ultrasoft PP ?                                                          
   IUNSCR =        1    unscreen: 0-lin 1-nonlin 2-no                                               
   RPACOR =    1.500    partial core radius                                                         
   POMASS =   32.066; ZVAL   =    6.000    mass and valenz                                          
   RCORE  =    1.900    outmost cutoff radius                                                       
   RWIGS  =    2.200; RWIGS  =    1.164    wigner-seitz radius (au A)                               
   ENMAX  =  258.689; ENMIN  =  194.016 eV                                                          
   ICORE  =        2    local potential                                                             
   LCOR   =        T    correct aug charges                                                         
   LPAW   =        T    paw PP                                                                      
   EAUG   =  335.092                                                                                
   DEXC   =    0.000                                                                                
   RMAX   =    1.942    core radius for proj-oper                                                   
   RAUG   =    1.300    factor for augmentation sphere                                              
   RDEP   =    1.954    radius for radial grids                                                     
   RDEPT  =    1.744    core radius for aug-charge                                                  
                                                                                                    
   Atomic configuration                                                                             
    6 entries                                                                                       
     n  l   j            E        occ.                                                              
     1  0  0.50     -2405.8406   2.0000                                                             
     2  0  0.50      -211.7007   2.0000                                                             
     2  1  1.50      -156.4958   6.0000                                                             
     3  0  0.50       -17.2562   2.0000                                                             
     3  1  0.50        -7.0085   4.0000                                                             
     3  2  1.50        -6.8029   0.0000                                                             
   Description                                                                                      
     l       E           TYP  RCUT    TYP  RCUT                                                     
     0    -17.2561641     23  1.900                                                                 
     0    -15.8743224     23  1.900                                                                 
     1     -7.0085400     23  1.900                                                                 
     1     -2.7779785     23  1.900                                                                 
     2     -6.8029130     23  1.900                                                                 
  local pseudopotential read in
  partial core-charges read in
  partial kinetic energy density read in
  atomic valenz-charges read in
  non local Contribution for L=           0  read in
    real space projection operators read in
  non local Contribution for L=           0  read in
    real space projection operators read in
  non local Contribution for L=           1  read in
    real space projection operators read in
  non local Contribution for L=           1  read in
    real space projection operators read in
    PAW grid and wavefunctions read in
 
   number of l-projection  operators is LMAX  =           4
   number of lm-projection operators is LMMAX =           8
 
  PAW_PBE S 06Sep2000                   :
 energy of atom  1       EATOM= -276.8230
 kinetic energy error for atom=    0.0016 (will be added to EATOM!!)
 
 
 POSCAR: S1
  positions in direct lattice
  No initial velocities read in
 exchange correlation table for  LEXCH =        8
   RHO(1)=    0.500       N(1)  =     2000
   RHO(2)=  100.500       N(2)  =     4000
 


--------------------------------------------------------------------------------------------------------


 ion  position               nearest neighbor table
   1  0.000  0.000  0.000-
 

IMPORTANT INFORMATION: All symmetrisations will be switched off!
NOSYMM: (Re-)initialisation of all symmetry stuff for point group C_1.


----------------------------------------------------------------------------------------

                                     Primitive cell                                     

  volume of cell :    5929.5600

  direct lattice vectors                    reciprocal lattice vectors
    18.000000000  0.000000000  0.000000000     0.055555556 -0.000000000  0.000000000
     0.000000000 18.100000000  0.000000000     0.000000000  0.055248619  0.000000000
     0.000000000  0.000000000 18.200000000    -0.000000000 -0.000000000  0.054945055

  length of vectors
    18.000000000 18.100000000 18.200000000     0.055555556  0.055248619  0.054945055

  position of ions in fractional coordinates (direct lattice)
     0.000000000  0.000000000  0.000000000

  ion indices of the primitive-cell ions
   primitive index   ion index
                 1           1

----------------------------------------------------------------------------------------

 
 
 KPOINTS: Automatic kpoint scheme                 

Automatic generation of k-mesh.
 Grid dimensions read from file:
 generate k-points for:    1    1    1

 Generating k-lattice:

  Cartesian coordinates                     Fractional coordinates (reciprocal lattice)
     0.055555556 -0.000000000  0.000000000     1.000000000 -0.000000000  0.000000000
     0.000000000  0.055248619  0.000000000     0.000000000  1.000000000  0.000000000
    -0.000000000 -0.000000000  0.054945055    -0.000000000 -0.000000000  1.000000000

  Length of vectors
     0.055555556  0.055248619  0.054945055

  Shift w.r.t. Gamma in fractional coordinates (k-lattice)
     0.000000000  0.000000000  0.000000000

 
 Subroutine IBZKPT returns following result:
 ===========================================
 
 Found      1 irreducible k-points:
 
 Following reciprocal coordinates:
            Coordinates               Weight
  0.000000  0.000000  0.000000      1.000000
 
 Following cartesian coordinates:
            Coordinates               Weight
  0.000000  0.000000  0.000000      1.000000
 


--------------------------------------------------------------------------------------------------------




 Dimension of arrays:
   k-points           NKPTS =      1   k-points in BZ     NKDIM =      1   number of bands    NBANDS=      8
   number of dos      NEDOS =    301   number of ions     NIONS =      1
   non local maximal  LDIM  =      4   non local SUM 2l+1 LMDIM =      8
   total plane-waves  NPLWV = ******
   max r-space proj   IRMAX =      1   max aug-charges    IRDMAX=  14777
   dimension x,y,z NGX =   140 NGY =  140 NGZ =  140
   dimension x,y,z NGXF=   280 NGYF=  280 NGZF=  280
   support grid    NGXF=   280 NGYF=  280 NGZF=  280
   ions per type =               1
   NGX,Y,Z   is equivalent  to a cutoff of  12.93, 12.86, 12.79 a.u.
   NGXF,Y,Z  is equivalent  to a cutoff of  25.86, 25.72, 25.58 a.u.

 SYSTEM =  S_atom_ispin2                           
 POSCAR =  S1                                      

 Startparameter for this run:
   NWRITE =      2    write-flag & timer
   PREC   = accura    normal or accurate (medium, high low for compatibility)
   ISTART =      0    job   : 0-new  1-cont  2-samecut
   ICHARG =      2    charge: 1-file 2-atom 10-const
   ISPIN  =      2    spin polarized calculation?
   LNONCOLLINEAR =      F non collinear calculations
   LSORBIT =      F    spin-orbit coupling
   INIWAV =      1    electr: 0-lowe 1-rand  2-diag
   LASPH  =      T    aspherical Exc in radial PAW
 Electronic Relaxation 1
   ENCUT  =  520.0 eV  38.22 Ry    6.18 a.u.  33.47 33.65 33.84*2*pi/ulx,y,z
   ENINI  =  520.0     initial cutoff
   ENAUG  =  335.1 eV  augmentation charge cutoff
   NELM   =    400;   NELMIN=  2; NELMDL= -5     # of ELM steps 
   EDIFF  = 0.1E-04   stopping-criterion for ELM
   LREAL  =      F    real-space projection
   NLSPLINE    = F    spline interpolate recip. space projectors
   LCOMPAT=      F    compatible to vasp.4.4
   GGA_COMPAT  = F    GGA compatible to vasp.4.4-vasp.4.6
   LMAXPAW     = -100 max onsite density
   LMAXMIX     =    6 max onsite mixed and CHGCAR
   VOSKOWN=      0    Vosko Wilk Nusair interpolation
   ROPT   =    0.00000
 Ionic relaxation
   EDIFFG = 0.1E-03   stopping-criterion for IOM
   NSW    =      0    number of steps for IOM
   NBLOCK =      1;   KBLOCK =      1    inner block; outer block 
   IBRION =     -1    ionic relax: 0-MD 1-quasi-New 2-CG
   NFREE  =      0    steps in history (QN), initial steepest desc. (CG)
   ISIF   =      2    stress and relaxation
   IWAVPR =     10    prediction:  0-non 1-charg 2-wave 3-comb
   ISYM   =      0    0-nonsym 1-usesym 2-fastsym
   LCORR  =      T    Harris-Foulkes like correction to forces

   POTIM  = 0.5000    time-step for ionic-motion
   TEIN   =    0.0    initial temperature
   TEBEG  =    0.0;   TEEND  =   0.0 temperature during run
   SMASS  =  -3.00    Nose mass-parameter (am)
   estimated Nose-frequenzy (Omega)   =  0.10E-29 period in steps = 0.13E+47 mass=  -0.740E-26a.u.
   SCALEE = 1.0000    scale energy and forces
   NPACO  =    256;   APACO  = 10.0  distance and # of slots for P.C.
   PSTRESS=    0.0 pullay stress

  Mass of Ions in am
   POMASS =  32.07
  Ionic Valenz
   ZVAL   =   6.00
  Atomic Wigner-Seitz radii
   RWIGS  =  -1.00
  virtual crystal weights 
   VCA    =   1.00
   NELECT =       6.0000    total number of electrons
   NUPDOWN=      -1.0000    fix difference up-down

 DOS related values:
   EMIN   =  10.00;   EMAX   =-10.00  energy-range for DOS
   EFERMI =   0.00;   METHOD = MIDGAP      
   ISMEAR =     0;   SIGMA  =   0.05  broadening in eV -4-tet -1-fermi 0-gaus

 Electronic relaxation 2 (details)
   IALGO  =     38    algorithm
   LDIAG  =      T    sub-space diagonalisation (order eigenvalues)
   LSUBROT=      F    optimize rotation matrix (better conditioning)
   TURBO    =      0    0=normal 1=particle mesh
   IRESTART =      0    0=no restart 2=restart with 2 vectors
   NREBOOT  =      0    no. of reboots
   NMIN     =      0    reboot dimension
   EREF     =   0.00    reference energy to select bands
   IMIX   =      4    mixing-type and parameters
     AMIX     =   0.40;   BMIX     =  1.00
     AMIX_MAG =   1.60;   BMIX_MAG =  1.00
     AMIN     =   0.10
     WC   =   100.;   INIMIX=   1;  MIXPRE=   1;  MAXMIX= -45

 Intra band minimization:
   WEIMIN = 0.0000     energy-eigenvalue tresh-hold
   EBREAK =  0.31E-06  absolut break condition
   DEPER  =   0.30     relativ break condition  

   TIME   =   0.40     timestep for ELM

  volume/ion in A,a.u.               =    5929.56     40014.65
  Fermi-wavevector in a.u.,A,eV,Ry     =   0.164356  0.310587  0.367531  0.027013
  Thomas-Fermi vector in A             =   0.864462
 
 Write flags
   LWAVE        =      F    write WAVECAR
   LDOWNSAMPLE  =      F    k-point downsampling of WAVECAR
   LCHARG       =      F    write CHGCAR
   LVTOT        =      F    write LOCPOT, total local potential
   LVHAR        =      F    write LOCPOT, Hartree potential only
   LELF         =      F    write electronic localiz. function (ELF)
   LORBIT       =      0    0 simple, 1 ext, 2 COOP (PROOUT), +10 PAW based schemes


 Dipole corrections
   LMONO  =      F    monopole corrections only (constant potential shift)
   LDIPOL =      F    correct potential (dipole corrections)
   IDIPOL =      0    1-x, 2-y, 3-z, 4-all directions 
   EPSILON=  1.0000000 bulk dielectric constant

 Exchange correlation treatment:
   GGA     =    PE    GGA type
   LEXCH   =     8    internal setting for exchange type
   LIBXC   =     F    Libxc                    
   VOSKOWN =     0    Vosko Wilk Nusair interpolation
   LHFCALC =     F    Hartree Fock is set to
   LHFONE  =     F    Hartree Fock one center treatment
   AEXX    =    0.0000 exact exchange contribution

 Linear response parameters
   LEPSILON=     F    determine dielectric tensor
   LRPA    =     F    only Hartree local field effects (RPA)
   LNABLA  =     F    use nabla operator in PAW spheres
   LVEL    =     F    velocity operator in full k-point grid
   CSHIFT  =0.1000    complex shift for real part using Kramers Kronig
   OMEGAMAX=  -1.0    maximum frequency
   DEG_THRESHOLD= 0.2000000E-02 threshold for treating states as degnerate
   RTIME   =   -0.100 relaxation time in fs
  (WPLASMAI=    0.000 imaginary part of plasma frequency in eV, 0.658/RTIME)
   DFIELD  = 0.0000000 0.0000000 0.0000000 field for delta impulse in time
 
  Optional k-point grid parameters
   LKPOINTS_OPT  =     F    use optional k-point grid
   KPOINTS_OPT_MODE=     1    mode for optional k-point grid
 
 Orbital magnetization related:
   ORBITALMAG=     F  switch on orbital magnetization
   LCHIMAG   =     F  perturbation theory with respect to B field
   DQ        =  0.001000  dq finite difference perturbation B field
   LLRAUG    =     F  two centre corrections for induced B field
   LBONE     =     F  B-component reconstruction in AE one-centre
   LVGVCALC  =     T  calculate vGv susceptibility
   LVGVAPPL  =     F  apply vGv susceptibility instead of pGv for G=0

 Random number generation:
   RANDOM_GENERATOR = DEFAULT
   PCG_SEED         = not used


--------------------------------------------------------------------------------------------------------


 Static calculation
 charge density and potential will be updated during run
 spin polarized calculation
 Variant of blocked Davidson
 Davidson routine will perform the subspace rotation
 perform sub-space diagonalisation
    after iterative eigenvector-optimisation
 modified Broyden-mixing scheme, WC =      100.0
 initial mixing is a Kerker type mixing with AMIX =  0.4000 and BMIX =      1.0000
 Hartree-type preconditioning will be used
 using additional bands            5
 reciprocal scheme for non local part
 use partial core corrections
 calculate Harris-corrections to forces 
   (improved forces if not selfconsistent)
 use gradient corrections 
 use of overlap-Matrix (Vanderbilt PP)
 Gauss-broadening in eV      SIGMA  =   0.05


--------------------------------------------------------------------------------------------------------


  energy-cutoff  :      520.00
  volume of cell :     5929.56
      direct lattice vectors                 reciprocal lattice vectors
    18.000000000  0.000000000  0.000000000     0.055555556 -0.000000000  0.000000000
     0.000000000 18.100000000  0.000000000     0.000000000  0.055248619  0.000000000
     0.000000000  0.000000000 18.200000000    -0.000000000 -0.000000000  0.054945055

  length of vectors
    18.000000000 18.100000000 18.200000000     0.055555556  0.055248619  0.054945055


 
 k-points in units of 2pi/SCALE and weight: Automatic kpoint scheme                 
   0.00000000  0.00000000  0.00000000       1.000
 
 k-points in reciprocal lattice and weights: Automatic kpoint scheme                 
   0.00000000  0.00000000  0.00000000       1.000
 
 position of ions in fractional coordinates (direct lattice) 
   0.00000000  0.00000000  0.00000000
 
 position of ions in cartesian coordinates  (Angst):
   0.00000000  0.00000000  0.00000000
 


--------------------------------------------------------------------------------------------------------


 use parallel FFT for orbitals z direction half grid
 k-point   1 :   0.0000 0.0000 0.0000  plane waves:   79868

 maximum and minimum number of plane-waves per node :      2508     2479

 maximum number of plane-waves:     79868
 maximum index in each direction: 
   IXMAX=   33   IYMAX=   33   IZMAX=   33
   IXMIN=  -33   IYMIN=  -33   IZMIN=    0


 parallel 3D FFT for wavefunctions:
    minimum data exchange during FFTs selected (reduces bandwidth)
 parallel 3D FFT for charge:
    minimum data exchange during FFTs selected (reduces bandwidth)


 total amount of memory used by VASP MPI-rank0    81698. kBytes
=======================================================================

   base      :      30000. kBytes
   nonl-proj :        198. kBytes
   fftplans  :      14937. kBytes
   grid      :      36243. kBytes
   one-center:          3. kBytes
   wavefun   :        317. kBytes
 
     INWAV:  cpu time      0.0000: real time      0.0000
 Broyden mixing: mesh for mixing (old mesh)
   NGX = 67   NGY = 67   NGZ = 67
  (NGX  =280   NGY  =280   NGZ  =280)
  gives a total of 300763 points

 initial charge density was supplied:
 charge density of overlapping atoms calculated
 number of electron       6.0000000 magnetization       2.0000000
 keeping initial charge density in first step


--------------------------------------------------------------------------------------------------------


 Maximum index for augmentation-charges          699 (set IRDMAX)


--------------------------------------------------------------------------------------------------------


 First call to EWALD:  gamma=   0.098
 Maximum number of real-space cells 3x 3x 3
 Maximum number of reciprocal cells 3x 3x 3

    FEWALD:  cpu time      0.0010: real time      0.0010


--------------------------------------- Ionic step        1  -------------------------------------------




--------------------------------------- Iteration      1(   1)  ---------------------------------------


    POTLOK:  cpu time      0.5753: real time      0.5795
    SETDIJ:  cpu time      0.2026: real time      0.2036
     EDDAV:  cpu time      0.0945: real time      0.0953
       DOS:  cpu time      0.0005: real time      0.0005
    --------------------------------------------
      LOOP:  cpu time      0.8729: real time      0.8790

 eigenvalue-minimisations  :    32
 total energy-change (2. order) : 0.3370922E+02  (-0.7567381E+02)
 number of electron       6.0000000 magnetization       2.0000000
 augmentation part        6.0000000 magnetization       2.0000000

 Free energy of the ion-electron system (eV)
  ---------------------------------------------------
  alpha Z        PSCENC =         0.02545650
  Ewald energy   TEWEN  =       -40.62990779
  -Hartree energ DENC   =      -187.96288959
  -exchange      EXHF   =         0.00000000
  -V(xc)+E(xc)   XCENC  =        11.19377101
  PAW double counting   =       217.16806364     -213.93290862
  entropy T*S    EENTRO =        -0.02755048
  eigenvalues    EBANDS =       -28.94623133
  atomic energy  EATOM  =       276.82141602
  Solvation  Ediel_sol  =         0.00000000
  ---------------------------------------------------
  free energy    TOTEN  =        33.70921935 eV

  energy without entropy =       33.73676983  energy(sigma->0) =       33.72299459


--------------------------------------------------------------------------------------------------------




--------------------------------------- Iteration      1(   2)  ---------------------------------------


     EDDAV:  cpu time      0.1227: real time      0.1241
       DOS:  cpu time      0.0002: real time      0.0002
    --------------------------------------------
      LOOP:  cpu time      0.1229: real time      0.1243

 eigenvalue-minimisations  :    48
 total energy-change (2. order) :-0.1438849E+02  (-0.1012648E+02)
 number of electron       6.0000000 magnetization       2.0000000
 augmentation part        6.0000000 magnetization       2.0000000

 Free energy of the ion-electron system (eV)
  ---------------------------------------------------
  alpha Z        PSCENC =         0.02545650
  Ewald energy   TEWEN  =       -40.62990779
  -Hartree energ DENC   =      -187.96288959
  -exchange      EXHF   =         0.00000000
  -V(xc)+E(xc)   XCENC  =        11.19377101
  PAW double counting   =       217.16806364     -213.93290862
  entropy T*S    EENTRO =        -0.01176919
  eigenvalues    EBANDS =       -43.35050054
  atomic energy  EATOM  =       276.82141602
  Solvation  Ediel_sol  =         0.00000000
  ---------------------------------------------------
  free energy    TOTEN  =        19.32073143 eV

  energy without entropy =       19.33250061  energy(sigma->0) =       19.32661602


--------------------------------------------------------------------------------------------------------




--------------------------------------- Iteration      1(   3)  ---------------------------------------


     EDDAV:  cpu time      0.1370: real time      0.1382
       DOS:  cpu time      0.0002: real time      0.0002
    --------------------------------------------
      LOOP:  cpu time      0.1371: real time      0.1383

 eigenvalue-minimisations  :    56
 total energy-change (2. order) :-0.1808517E+02  (-0.1355427E+02)
 number of electron       6.0000000 magnetization       2.0000000
 augmentation part        6.0000000 magnetization       2.0000000

 Free energy of the ion-electron system (eV)
  ---------------------------------------------------
  alpha Z        PSCENC =         0.02545650
  Ewald energy   TEWEN  =       -40.62990779
  -Hartree energ DENC   =      -187.96288959
  -exchange      EXHF   =         0.00000000
  -V(xc)+E(xc)   XCENC  =        11.19377101
  PAW double counting   =       217.16806364     -213.93290862
  entropy T*S    EENTRO =        -0.00000000
  eigenvalues    EBANDS =       -61.44744451
  atomic energy  EATOM  =       276.82141602
  Solvation  Ediel_sol  =         0.00000000
  ---------------------------------------------------
  free energy    TOTEN  =         1.23555665 eV

  energy without entropy =        1.23555665  energy(sigma->0) =        1.23555665


--------------------------------------------------------------------------------------------------------




--------------------------------------- Iteration      1(   4)  ---------------------------------------


     EDDAV:  cpu time      0.0914: real time      0.0922
       DOS:  cpu time      0.0003: real time      0.0003
    --------------------------------------------
      LOOP:  cpu time      0.0917: real time      0.0925

 eigenvalue-minimisations  :    32
 total energy-change (2. order) :-0.2092536E+01  (-0.2072266E+01)
 number of electron       6.0000000 magnetization       2.0000000
 augmentation part        6.0000000 magnetization       2.0000000

 Free energy of the ion-electron system (eV)
  ---------------------------------------------------
  alpha Z        PSCENC =         0.02545650
  Ewald energy   TEWEN  =       -40.62990779
  -Hartree energ DENC   =      -187.96288959
  -exchange      EXHF   =         0.00000000
  -V(xc)+E(xc)   XCENC  =        11.19377101
  PAW double counting   =       217.16806364     -213.93290862
  entropy T*S    EENTRO =        -0.02736164
  eigenvalues    EBANDS =       -63.51261935
  atomic energy  EATOM  =       276.82141602
  Solvation  Ediel_sol  =         0.00000000
  ---------------------------------------------------
  free energy    TOTEN  =        -0.85697983 eV

  energy without entropy =       -0.82961819  energy(sigma->0) =       -0.84329901


--------------------------------------------------------------------------------------------------------




--------------------------------------- Iteration      1(   5)  ---------------------------------------


     EDDAV:  cpu time      0.1214: real time      0.1224
       DOS:  cpu time      0.0003: real time      0.0003
    CHARGE:  cpu time      0.0456: real time      0.0460
    MIXING:  cpu time      0.0138: real time      0.0139
    --------------------------------------------
      LOOP:  cpu time      0.1812: real time      0.1827

 eigenvalue-minimisations  :    48
 total energy-change (2. order) :-0.4145372E-01  (-0.3090955E-01)
 number of electron       5.9999999 magnetization       2.0000000
 augmentation part       -0.8488397 magnetization      -0.1107697

 Broyden mixing:
  rms(total) = 0.85630E-01    rms(broyden)= 0.85619E-01
  rms(prec ) = 0.86012E-01
  weight for this iteration     100.00

 Free energy of the ion-electron system (eV)
  ---------------------------------------------------
  alpha Z        PSCENC =         0.02545650
  Ewald energy   TEWEN  =       -40.62990779
  -Hartree energ DENC   =      -187.96288959
  -exchange      EXHF   =         0.00000000
  -V(xc)+E(xc)   XCENC  =        11.19377101
  PAW double counting   =       217.16806364     -213.93290862
  entropy T*S    EENTRO =        -0.03855274
  eigenvalues    EBANDS =       -63.54288196
  atomic energy  EATOM  =       276.82141602
  Solvation  Ediel_sol  =         0.00000000
  ---------------------------------------------------
  free energy    TOTEN  =        -0.89843355 eV

  energy without entropy =       -0.85988080  energy(sigma->0) =       -0.87915718


--------------------------------------------------------------------------------------------------------




--------------------------------------- Iteration      1(   6)  ---------------------------------------


    POTLOK:  cpu time      0.6298: real time      0.6342
    SETDIJ:  cpu time      0.2022: real time      0.2032
     EDDAV:  cpu time      0.1397: real time      0.1407
       DOS:  cpu time      0.0004: real time      0.0004
    CHARGE:  cpu time      0.0421: real time      0.0425
    MIXING:  cpu time      0.0107: real time      0.0108
    --------------------------------------------
      LOOP:  cpu time      1.0250: real time      1.0318

 eigenvalue-minimisations  :    56
 total energy-change (2. order) :-0.1223650E-01  (-0.5090929E-02)
 number of electron       5.9999999 magnetization       2.0000000
 augmentation part       -0.8476516 magnetization      -0.1020784

 Broyden mixing:
  rms(total) = 0.10110E+00    rms(broyden)= 0.10109E+00
  rms(prec ) = 0.10308E+00
  weight for this iteration     100.00

 eigenvalues of (default mixing * dielectric matrix)
  average eigenvalue GAMMA=   0.5821
  0.5821

 Free energy of the ion-electron system (eV)
  ---------------------------------------------------
  alpha Z        PSCENC =         0.02545650
  Ewald energy   TEWEN  =       -40.62990779
  -Hartree energ DENC   =      -188.22505812
  -exchange      EXHF   =         0.00000000
  -V(xc)+E(xc)   XCENC  =        11.23556022
  PAW double counting   =       217.07080601     -213.88596230
  entropy T*S    EENTRO =        -0.03732042
  eigenvalues    EBANDS =       -63.28566016
  atomic energy  EATOM  =       276.82141602
  Solvation  Ediel_sol  =         0.00000000
  ---------------------------------------------------
  free energy    TOTEN  =        -0.91067005 eV

  energy without entropy =       -0.87334963  energy(sigma->0) =       -0.89200984


--------------------------------------------------------------------------------------------------------




--------------------------------------- Iteration      1(   7)  ---------------------------------------


    POTLOK:  cpu time      0.6038: real time      0.6088
    SETDIJ:  cpu time      0.2030: real time      0.2040
     EDDAV:  cpu time      0.1542: real time      0.1555
       DOS:  cpu time      0.0003: real time      0.0003
    CHARGE:  cpu time      0.0423: real time      0.0426
    MIXING:  cpu time      0.0109: real time      0.0110
    --------------------------------------------
      LOOP:  cpu time      1.0146: real time      1.0222

 eigenvalue-minimisations  :    64
 total energy-change (2. order) :-0.1425018E-01  (-0.5992826E-03)
 number of electron       5.9999999 magnetization       2.0000000
 augmentation part       -0.8474263 magnetization      -0.1028032

 Broyden mixing:
  rms(total) = 0.15644E+00    rms(broyden)= 0.15644E+00
  rms(prec ) = 0.16456E+00
  weight for this iteration     100.00

 eigenvalues of (default mixing * dielectric matrix)
  average eigenvalue GAMMA=   0.3440
  0.6185  0.0696

 Free energy of the ion-electron system (eV)
  ---------------------------------------------------
  alpha Z        PSCENC =         0.02545650
  Ewald energy   TEWEN  =       -40.62990779
  -Hartree energ DENC   =      -188.28107863
  -exchange      EXHF   =         0.00000000
  -V(xc)+E(xc)   XCENC  =        11.23117423
  PAW double counting   =       220.17574176     -216.98006920
  entropy T*S    EENTRO =        -0.02826295
  eigenvalues    EBANDS =       -63.25939018
  atomic energy  EATOM  =       276.82141602
  Solvation  Ediel_sol  =         0.00000000
  ---------------------------------------------------
  free energy    TOTEN  =        -0.92492023 eV

  energy without entropy =       -0.89665729  energy(sigma->0) =       -0.91078876


--------------------------------------------------------------------------------------------------------




--------------------------------------- Iteration      1(   8)  ---------------------------------------


    POTLOK:  cpu time      0.5888: real time      0.5937
    SETDIJ:  cpu time      0.2031: real time      0.2041
     EDDAV:  cpu time      0.1236: real time      0.1245
       DOS:  cpu time      0.0004: real time      0.0004
    CHARGE:  cpu time      0.0421: real time      0.0425
    MIXING:  cpu time      0.0108: real time      0.0109
    --------------------------------------------
      LOOP:  cpu time      0.9688: real time      0.9760

 eigenvalue-minimisations  :    48
 total energy-change (2. order) : 0.8555476E-02  (-0.1523545E-03)
 number of electron       5.9999999 magnetization       2.0000000
 augmentation part       -0.8473936 magnetization      -0.1029020

 Broyden mixing:
  rms(total) = 0.13163E+00    rms(broyden)= 0.13163E+00
  rms(prec ) = 0.13804E+00
  weight for this iteration     100.00

 eigenvalues of (default mixing * dielectric matrix)
  average eigenvalue GAMMA=   0.3345
  0.5838  0.2243  0.1953

 Free energy of the ion-electron system (eV)
  ---------------------------------------------------
  alpha Z        PSCENC =         0.02545650
  Ewald energy   TEWEN  =       -40.62990779
  -Hartree energ DENC   =      -188.27887083
  -exchange      EXHF   =         0.00000000
  -V(xc)+E(xc)   XCENC  =        11.22954878
  PAW double counting   =       220.20454882     -217.00776538
  entropy T*S    EENTRO =        -0.03239181
  eigenvalues    EBANDS =       -63.24839907
  atomic energy  EATOM  =       276.82141602
  Solvation  Ediel_sol  =         0.00000000
  ---------------------------------------------------
  free energy    TOTEN  =        -0.91636476 eV

  energy without entropy =       -0.88397295  energy(sigma->0) =       -0.90016885


--------------------------------------------------------------------------------------------------------




--------------------------------------- Iteration      1(   9)  ---------------------------------------


    POTLOK:  cpu time      0.6413: real time      0.6459
    SETDIJ:  cpu time      0.2023: real time      0.2033
     EDDAV:  cpu time      0.1392: real time      0.1401
       DOS:  cpu time      0.0004: real time      0.0004
    CHARGE:  cpu time      0.0428: real time      0.0432
    MIXING:  cpu time      0.0109: real time      0.0110
    --------------------------------------------
      LOOP:  cpu time      1.0369: real time      1.0438

 eigenvalue-minimisations  :    56
 total energy-change (2. order) :-0.5375589E-02  (-0.3451451E-03)
 number of electron       5.9999999 magnetization       2.0000000
 augmentation part       -0.8474030 magnetization      -0.1028774

 Broyden mixing:
  rms(total) = 0.17623E+00    rms(broyden)= 0.17623E+00
  rms(prec ) = 0.18535E+00
  weight for this iteration     100.00

 eigenvalues of (default mixing * dielectric matrix)
  average eigenvalue GAMMA=   0.4984
  0.6992  0.6992  0.4831  0.1122

 Free energy of the ion-electron system (eV)
  ---------------------------------------------------
  alpha Z        PSCENC =         0.02545650
  Ewald energy   TEWEN  =       -40.62990779
  -Hartree energ DENC   =      -188.28321124
  -exchange      EXHF   =         0.00000000
  -V(xc)+E(xc)   XCENC  =        11.23024027
  PAW double counting   =       220.40232639     -217.20591612
  entropy T*S    EENTRO =        -0.02749054
  eigenvalues    EBANDS =       -63.25465384
  atomic energy  EATOM  =       276.82141602
  Solvation  Ediel_sol  =         0.00000000
  ---------------------------------------------------
  free energy    TOTEN  =        -0.92174035 eV

  energy without entropy =       -0.89424980  energy(sigma->0) =       -0.90799508


--------------------------------------------------------------------------------------------------------




--------------------------------------- Iteration      1(  10)  ---------------------------------------


    POTLOK:  cpu time      0.5832: real time      0.5877
    SETDIJ:  cpu time      0.2023: real time      0.2033
     EDDAV:  cpu time      0.0930: real time      0.0936
       DOS:  cpu time      0.0004: real time      0.0004
    CHARGE:  cpu time      0.0421: real time      0.0424
    MIXING:  cpu time      0.0113: real time      0.0114
    --------------------------------------------
      LOOP:  cpu time      0.9322: real time      0.9388

 eigenvalue-minimisations  :    32
 total energy-change (2. order) : 0.6375359E-02  (-0.3022431E-01)
 number of electron       5.9999999 magnetization       2.0000000
 augmentation part       -0.8472738 magnetization      -0.1031636

 Broyden mixing:
  rms(total) = 0.13745E+00    rms(broyden)= 0.13745E+00
  rms(prec ) = 0.14384E+00
  weight for this iteration     100.00

 eigenvalues of (default mixing * dielectric matrix)
  average eigenvalue GAMMA=   0.6181
  1.1151  0.9441  0.5799  0.3393  0.1122

 Free energy of the ion-electron system (eV)
  ---------------------------------------------------
  alpha Z        PSCENC =         0.02545650
  Ewald energy   TEWEN  =       -40.62990779
  -Hartree energ DENC   =      -188.31033834
  -exchange      EXHF   =         0.00000000
  -V(xc)+E(xc)   XCENC  =        11.23107362
  PAW double counting   =       222.29739525     -219.10262677
  entropy T*S    EENTRO =        -0.03208671
  eigenvalues    EBANDS =       -63.21574677
  atomic energy  EATOM  =       276.82141602
  Solvation  Ediel_sol  =         0.00000000
  ---------------------------------------------------
  free energy    TOTEN  =        -0.91536499 eV

  energy without entropy =       -0.88327828  energy(sigma->0) =       -0.89932163


--------------------------------------------------------------------------------------------------------




--------------------------------------- Iteration      1(  11)  ---------------------------------------


    POTLOK:  cpu time      0.5942: real time      0.5986
    SETDIJ:  cpu time      0.2025: real time      0.2034
     EDDAV:  cpu time      0.1075: real time      0.1088
       DOS:  cpu time      0.0004: real time      0.0004
    CHARGE:  cpu time      0.0415: real time      0.0418
    MIXING:  cpu time      0.0115: real time      0.0116
    --------------------------------------------
      LOOP:  cpu time      0.9576: real time      0.9646

 eigenvalue-minimisations  :    40
 total energy-change (2. order) : 0.3598510E-02  (-0.1424815E-01)
 number of electron       5.9999999 magnetization       2.0000000
 augmentation part       -0.8466104 magnetization      -0.1032524

 Broyden mixing:
  rms(total) = 0.82364E-01    rms(broyden)= 0.82362E-01
  rms(prec ) = 0.86546E-01
  weight for this iteration     100.00

 eigenvalues of (default mixing * dielectric matrix)
  average eigenvalue GAMMA=   0.7887
  2.2777  0.7697  0.6056  0.6056  0.3611  0.1122

 Free energy of the ion-electron system (eV)
  ---------------------------------------------------
  alpha Z        PSCENC =         0.02545650
  Ewald energy   TEWEN  =       -40.62990779
  -Hartree energ DENC   =      -188.46236706
  -exchange      EXHF   =         0.00000000
  -V(xc)+E(xc)   XCENC  =        11.23731263
  PAW double counting   =       228.14012486     -224.94336330
  entropy T*S    EENTRO =        -0.03612577
  eigenvalues    EBANDS =       -63.06431257
  atomic energy  EATOM  =       276.82141602
  Solvation  Ediel_sol  =         0.00000000
  ---------------------------------------------------
  free energy    TOTEN  =        -0.91176648 eV

  energy without entropy =       -0.87564071  energy(sigma->0) =       -0.89370359


--------------------------------------------------------------------------------------------------------




--------------------------------------- Iteration      1(  12)  ---------------------------------------


    POTLOK:  cpu time      0.5795: real time      0.5833
    SETDIJ:  cpu time      0.2027: real time      0.2037
     EDDAV:  cpu time      0.1080: real time      0.1089
       DOS:  cpu time      0.0004: real time      0.0004
    CHARGE:  cpu time      0.0421: real time      0.0423
    MIXING:  cpu time      0.0115: real time      0.0116
    --------------------------------------------
      LOOP:  cpu time      0.9442: real time      0.9501

 eigenvalue-minimisations  :    40
 total energy-change (2. order) : 0.1952251E-02  (-0.2062139E-02)
 number of electron       5.9999999 magnetization       2.0000000
 augmentation part       -0.8463529 magnetization      -0.1033713

 Broyden mixing:
  rms(total) = 0.24318E-01    rms(broyden)= 0.24317E-01
  rms(prec ) = 0.25554E-01
  weight for this iteration     100.00

 eigenvalues of (default mixing * dielectric matrix)
  average eigenvalue GAMMA=   0.6809
  2.2763  0.7684  0.6061  0.6061  0.3611  0.1122  0.0357

 Free energy of the ion-electron system (eV)
  ---------------------------------------------------
  alpha Z        PSCENC =         0.02545650
  Ewald energy   TEWEN  =       -40.62990779
  -Hartree energ DENC   =      -188.53103241
  -exchange      EXHF   =         0.00000000
  -V(xc)+E(xc)   XCENC  =        11.24098805
  PAW double counting   =       232.08917306     -228.89060077
  entropy T*S    EENTRO =        -0.03835608
  eigenvalues    EBANDS =       -62.99695081
  atomic energy  EATOM  =       276.82141602
  Solvation  Ediel_sol  =         0.00000000
  ---------------------------------------------------
  free energy    TOTEN  =        -0.90981423 eV

  energy without entropy =       -0.87145815  energy(sigma->0) =       -0.89063619


--------------------------------------------------------------------------------------------------------




--------------------------------------- Iteration      1(  13)  ---------------------------------------


    POTLOK:  cpu time      0.5825: real time      0.5866
    SETDIJ:  cpu time      0.2033: real time      0.2042
     EDDAV:  cpu time      0.1409: real time      0.1420
       DOS:  cpu time      0.0004: real time      0.0004
    CHARGE:  cpu time      0.0433: real time      0.0436
    MIXING:  cpu time      0.0114: real time      0.0115
    --------------------------------------------
      LOOP:  cpu time      0.9817: real time      0.9883

 eigenvalue-minimisations  :    56
 total energy-change (2. order) : 0.3396059E-04  (-0.1241484E-04)
 number of electron       5.9999999 magnetization       2.0000000
 augmentation part       -0.8463518 magnetization      -0.1033741

 Broyden mixing:
  rms(total) = 0.21128E-01    rms(broyden)= 0.21127E-01
  rms(prec ) = 0.22167E-01
  weight for this iteration     100.00

 eigenvalues of (default mixing * dielectric matrix)
  average eigenvalue GAMMA=   0.7510
  2.5294  0.9556  0.6875  0.6875  0.5566  0.3610  0.1122  0.1182

 Free energy of the ion-electron system (eV)
  ---------------------------------------------------
  alpha Z        PSCENC =         0.02545650
  Ewald energy   TEWEN  =       -40.62990779
  -Hartree energ DENC   =      -188.53086506
  -exchange      EXHF   =         0.00000000
  -V(xc)+E(xc)   XCENC  =        11.24095623
  PAW double counting   =       232.06224521     -228.86369319
  entropy T*S    EENTRO =        -0.03840551
  eigenvalues    EBANDS =       -62.99698267
  atomic energy  EATOM  =       276.82141602
  Solvation  Ediel_sol  =         0.00000000
  ---------------------------------------------------
  free energy    TOTEN  =        -0.90978027 eV

  energy without entropy =       -0.87137476  energy(sigma->0) =       -0.89057751


--------------------------------------------------------------------------------------------------------




--------------------------------------- Iteration      1(  14)  ---------------------------------------


    POTLOK:  cpu time      0.5647: real time      0.5684
    SETDIJ:  cpu time      0.2052: real time      0.2063
     EDDAV:  cpu time      0.1137: real time      0.1146
       DOS:  cpu time      0.0003: real time      0.0003
    CHARGE:  cpu time      0.0414: real time      0.0416
    MIXING:  cpu time      0.0119: real time      0.0120
    --------------------------------------------
      LOOP:  cpu time      0.9372: real time      0.9432

 eigenvalue-minimisations  :    40
 total energy-change (2. order) : 0.5459116E-04  (-0.1035563E-04)
 number of electron       5.9999999 magnetization       2.0000000
 augmentation part       -0.8463859 magnetization      -0.1033942

 Broyden mixing:
  rms(total) = 0.35953E-02    rms(broyden)= 0.35947E-02
  rms(prec ) = 0.37838E-02
  weight for this iteration     100.00

 eigenvalues of (default mixing * dielectric matrix)
  average eigenvalue GAMMA=   0.7061
  2.5432  0.3609  0.9654  0.6869  0.6869  0.5502  0.3305  0.1122  0.1183

 Free energy of the ion-electron system (eV)
  ---------------------------------------------------
  alpha Z        PSCENC =         0.02545650
  Ewald energy   TEWEN  =       -40.62990779
  -Hartree energ DENC   =      -188.53790415
  -exchange      EXHF   =         0.00000000
  -V(xc)+E(xc)   XCENC  =        11.24166067
  PAW double counting   =       232.99622239     -229.79700568
  entropy T*S    EENTRO =        -0.03856064
  eigenvalues    EBANDS =       -62.99110299
  atomic energy  EATOM  =       276.82141602
  Solvation  Ediel_sol  =         0.00000000
  ---------------------------------------------------
  free energy    TOTEN  =        -0.90972568 eV

  energy without entropy =       -0.87116503  energy(sigma->0) =       -0.89044535


--------------------------------------------------------------------------------------------------------




--------------------------------------- Iteration      1(  15)  ---------------------------------------


    POTLOK:  cpu time      0.6145: real time      0.6186
    SETDIJ:  cpu time      0.2025: real time      0.2035
     EDDAV:  cpu time      0.1386: real time      0.1394
       DOS:  cpu time      0.0003: real time      0.0003
    CHARGE:  cpu time      0.0420: real time      0.0423
    MIXING:  cpu time      0.0118: real time      0.0118
    --------------------------------------------
      LOOP:  cpu time      1.0098: real time      1.0161

 eigenvalue-minimisations  :    56
 total energy-change (2. order) :-0.6550842E-04  (-0.4621845E-05)
 number of electron       5.9999999 magnetization       2.0000000
 augmentation part       -0.8464003 magnetization      -0.1034047

 Broyden mixing:
  rms(total) = 0.10170E-01    rms(broyden)= 0.10170E-01
  rms(prec ) = 0.10724E-01
  weight for this iteration     100.00

 eigenvalues of (default mixing * dielectric matrix)
  average eigenvalue GAMMA=   0.6892
  2.5767  1.0237  0.7029  0.7029  0.5894  0.5894  0.3609  0.1122  0.1171  0.1171

 Free energy of the ion-electron system (eV)
  ---------------------------------------------------
  alpha Z        PSCENC =         0.02545650
  Ewald energy   TEWEN  =       -40.62990779
  -Hartree energ DENC   =      -188.53811701
  -exchange      EXHF   =         0.00000000
  -V(xc)+E(xc)   XCENC  =        11.24165720
  PAW double counting   =       233.05011867     -229.85071304
  entropy T*S    EENTRO =        -0.03852889
  eigenvalues    EBANDS =       -62.99117284
  atomic energy  EATOM  =       276.82141602
  Solvation  Ediel_sol  =         0.00000000
  ---------------------------------------------------
  free energy    TOTEN  =        -0.90979118 eV

  energy without entropy =       -0.87126230  energy(sigma->0) =       -0.89052674


--------------------------------------------------------------------------------------------------------




--------------------------------------- Iteration      1(  16)  ---------------------------------------


    POTLOK:  cpu time      0.6542: real time      0.6593
    SETDIJ:  cpu time      0.2025: real time      0.2035
     EDDAV:  cpu time      0.1233: real time      0.1245
       DOS:  cpu time      0.0004: real time      0.0004
    CHARGE:  cpu time      0.0424: real time      0.0428
    MIXING:  cpu time      0.0118: real time      0.0119
    --------------------------------------------
      LOOP:  cpu time      1.0346: real time      1.0423

 eigenvalue-minimisations  :    48
 total energy-change (2. order) :-0.3603267E-05  (-0.1284352E-04)
 number of electron       5.9999999 magnetization       2.0000000
 augmentation part       -0.8464198 magnetization      -0.1034165

 Broyden mixing:
  rms(total) = 0.45775E-02    rms(broyden)= 0.45774E-02
  rms(prec ) = 0.48102E-02
  weight for this iteration     100.00

 eigenvalues of (default mixing * dielectric matrix)
  average eigenvalue GAMMA=   0.7590
  2.5844  1.5886  0.3609  0.8391  0.7258  0.7258  0.6257  0.5495  0.1122  0.1189
  0.1179

 Free energy of the ion-electron system (eV)
  ---------------------------------------------------
  alpha Z        PSCENC =         0.02545650
  Ewald energy   TEWEN  =       -40.62990779
  -Hartree energ DENC   =      -188.53835166
  -exchange      EXHF   =         0.00000000
  -V(xc)+E(xc)   XCENC  =        11.24167541
  PAW double counting   =       233.15356024     -229.95387494
  entropy T*S    EENTRO =        -0.03855819
  eigenvalues    EBANDS =       -62.99121037
  atomic energy  EATOM  =       276.82141602
  Solvation  Ediel_sol  =         0.00000000
  ---------------------------------------------------
  free energy    TOTEN  =        -0.90979479 eV

  energy without entropy =       -0.87123659  energy(sigma->0) =       -0.89051569


--------------------------------------------------------------------------------------------------------




--------------------------------------- Iteration      1(  17)  ---------------------------------------


    POTLOK:  cpu time      0.5846: real time      0.5895
    SETDIJ:  cpu time      0.2022: real time      0.2032
     EDDAV:  cpu time      0.1234: real time      0.1244
       DOS:  cpu time      0.0004: real time      0.0004
    CHARGE:  cpu time      0.0420: real time      0.0423
    MIXING:  cpu time      0.0121: real time      0.0122
    --------------------------------------------
      LOOP:  cpu time      0.9648: real time      0.9720

 eigenvalue-minimisations  :    48
 total energy-change (2. order) :-0.3558800E-04  (-0.1076396E-04)
 number of electron       5.9999999 magnetization       2.0000000
 augmentation part       -0.8464503 magnetization      -0.1034320

 Broyden mixing:
  rms(total) = 0.16997E-02    rms(broyden)= 0.16995E-02
  rms(prec ) = 0.18150E-02
  weight for this iteration     100.00

 eigenvalues of (default mixing * dielectric matrix)
  average eigenvalue GAMMA=   0.7310
  2.5613  1.5961  0.3609  0.8441  0.7609  0.6961  0.5848  0.5848  0.4343  0.1122
  0.1178  0.1190

 Free energy of the ion-electron system (eV)
  ---------------------------------------------------
  alpha Z        PSCENC =         0.02545650
  Ewald energy   TEWEN  =       -40.62990779
  -Hartree energ DENC   =      -188.54050128
  -exchange      EXHF   =         0.00000000
  -V(xc)+E(xc)   XCENC  =        11.24178726
  PAW double counting   =       233.18462449     -229.98466320
  entropy T*S    EENTRO =        -0.03856441
  eigenvalues    EBANDS =       -62.98947796
  atomic energy  EATOM  =       276.82141602
  Solvation  Ediel_sol  =         0.00000000
  ---------------------------------------------------
  free energy    TOTEN  =        -0.90983038 eV

  energy without entropy =       -0.87126596  energy(sigma->0) =       -0.89054817


--------------------------------------------------------------------------------------------------------




--------------------------------------- Iteration      1(  18)  ---------------------------------------


    POTLOK:  cpu time      0.5806: real time      0.5854
    SETDIJ:  cpu time      0.2026: real time      0.2035
     EDDAV:  cpu time      0.1535: real time      0.1547
       DOS:  cpu time      0.0004: real time      0.0004
    CHARGE:  cpu time      0.0429: real time      0.0432
    MIXING:  cpu time      0.0122: real time      0.0123
    --------------------------------------------
      LOOP:  cpu time      0.9921: real time      0.9995

 eigenvalue-minimisations  :    64
 total energy-change (2. order) :-0.1561218E-04  (-0.9607175E-06)
 number of electron       5.9999999 magnetization       2.0000000
 augmentation part       -0.8464510 magnetization      -0.1034327

 Broyden mixing:
  rms(total) = 0.18837E-02    rms(broyden)= 0.18837E-02
  rms(prec ) = 0.20016E-02
  weight for this iteration     100.00

 eigenvalues of (default mixing * dielectric matrix)
  average eigenvalue GAMMA=   0.7080
  2.5397  1.6181  0.3609  0.8857  0.8055  0.6683  0.6683  0.6583  0.5370  0.1122
  0.1193  0.1174  0.1138

 Free energy of the ion-electron system (eV)
  ---------------------------------------------------
  alpha Z        PSCENC =         0.02545650
  Ewald energy   TEWEN  =       -40.62990779
  -Hartree energ DENC   =      -188.54289031
  -exchange      EXHF   =         0.00000000
  -V(xc)+E(xc)   XCENC  =        11.24187297
  PAW double counting   =       233.14620242     -229.94620696
  entropy T*S    EENTRO =        -0.03856431
  eigenvalues    EBANDS =       -62.98722453
  atomic energy  EATOM  =       276.82141602
  Solvation  Ediel_sol  =         0.00000000
  ---------------------------------------------------
  free energy    TOTEN  =        -0.90984599 eV

  energy without entropy =       -0.87128168  energy(sigma->0) =       -0.89056383


--------------------------------------------------------------------------------------------------------




--------------------------------------- Iteration      1(  19)  ---------------------------------------


    POTLOK:  cpu time      0.5788: real time      0.5832
    SETDIJ:  cpu time      0.2026: real time      0.2036
     EDDAV:  cpu time      0.0942: real time      0.0950
       DOS:  cpu time      0.0003: real time      0.0003
    --------------------------------------------
      LOOP:  cpu time      0.8759: real time      0.8821

 eigenvalue-minimisations  :    32
 total energy-change (2. order) :-0.5577214E-05  (-0.2660820E-06)
 number of electron       5.9999999 magnetization       2.0000000
 augmentation part       -0.8464510 magnetization      -0.1034327

 Free energy of the ion-electron system (eV)
  ---------------------------------------------------
  alpha Z        PSCENC =         0.02545650
  Ewald energy   TEWEN  =       -40.62990779
  -Hartree energ DENC   =      -188.54395130
  -exchange      EXHF   =         0.00000000
  -V(xc)+E(xc)   XCENC  =        11.24190960
  PAW double counting   =       233.12405841     -229.92404279
  entropy T*S    EENTRO =        -0.03856545
  eigenvalues    EBANDS =       -62.98622476
  atomic energy  EATOM  =       276.82141602
  Solvation  Ediel_sol  =         0.00000000
  ---------------------------------------------------
  free energy    TOTEN  =        -0.90985156 eV

  energy without entropy =       -0.87128612  energy(sigma->0) =       -0.89056884


--------------------------------------------------------------------------------------------------------




 average (electrostatic) potential at core
  the test charge radii are     0.9698
  (the norm of the test charge is              1.0000)
       1 -97.3451
 
 
 
 E-fermi :  -5.9527     XC(G=0):  -0.1741     alpha+bet : -0.0345

 Fermi energy:        -5.9527402198

 spin component 1

 k-point     1 :       0.0000    0.0000    0.0000
  band No.  band energies     occupation 
      1     -17.9687      1.00000
      2      -7.6616      1.00000
      3      -7.6615      1.00000
      4      -7.6614      1.00000
      5      -0.4670      0.00000
      6       0.1572      0.00000
      7       0.2859      0.00000
      8       0.2923      0.00000
 Fermi energy:        -5.9527402198

 spin component 2

 k-point     1 :       0.0000    0.0000    0.0000
  band No.  band energies     occupation 
      1     -16.0955      1.00000
      2      -5.9376      0.33417
      3      -5.9376      0.33383
      4      -5.9374      0.33200
      5      -0.2745      0.00000
      6       0.1544      0.00000
      7       0.3292      0.00000
      8       0.3362      0.00000


--------------------------------------------------------------------------------------------------------


 soft charge-density along one line, spin component           1
         0         1         2         3         4         5         6         7         8         9
 total charge-density along one line
 
 soft charge-density along one line, spin component           2
         0         1         2         3         4         5         6         7         8         9
 total charge-density along one line
 
 pseudopotential strength for first ion, spin component:           1
 42.968  49.350  -0.000  -0.000  -0.000  -0.000  -0.000  -0.000
 49.350  56.682  -0.000  -0.000  -0.000  -0.000  -0.000  -0.000
 -0.000  -0.000   8.837  -0.000   0.000  11.969  -0.000   0.000
 -0.000  -0.000  -0.000   8.837   0.000  -0.000  11.969   0.000
 -0.000  -0.000   0.000   0.000   8.837   0.000   0.000  11.969
 -0.000  -0.000  11.969  -0.000   0.000  16.230  -0.000   0.000
 -0.000  -0.000  -0.000  11.969   0.000  -0.000  16.230   0.000
 -0.000  -0.000   0.000   0.000  11.969   0.000   0.000  16.230
 pseudopotential strength for first ion, spin component:           2
 42.799  49.158   0.000   0.000  -0.000   0.000   0.000  -0.000
 49.158  56.464   0.000   0.000  -0.000   0.000   0.000  -0.000
  0.000   0.000   8.714  -0.000   0.000  11.802  -0.000   0.000
  0.000   0.000  -0.000   8.714  -0.000  -0.000  11.802  -0.000
 -0.000  -0.000   0.000  -0.000   8.714   0.000  -0.000  11.802
  0.000   0.000  11.802  -0.000   0.000  16.003  -0.000   0.000
  0.000   0.000  -0.000  11.802  -0.000  -0.000  16.003  -0.000
 -0.000  -0.000   0.000  -0.000  11.802   0.000  -0.000  16.003
 total augmentation occupancy for first ion, spin component:           1
  2.772  -0.796   0.000  -0.000   0.000   0.000   0.000  -0.000
 -0.796   0.801  -0.000   0.000  -0.000  -0.000  -0.000   0.000
  0.000  -0.000   1.426   0.002   0.001  -0.033   0.000   0.000
 -0.000   0.000   0.002   1.422   0.000   0.000  -0.033  -0.000
  0.000  -0.000   0.001   0.000   1.426   0.000  -0.000  -0.033
  0.000  -0.000  -0.033   0.000   0.000   0.004   0.000  -0.000
  0.000  -0.000   0.000  -0.033  -0.000   0.000   0.004   0.000
 -0.000   0.000   0.000  -0.000  -0.033  -0.000   0.000   0.004
 total augmentation occupancy for first ion, spin component:           2
  2.684  -1.086   0.000  -0.000   0.000   0.000   0.000  -0.000
 -1.086  -0.152  -0.000   0.000  -0.000  -0.000  -0.000   0.000
  0.000  -0.000   0.881  -0.002  -0.001  -0.070  -0.000  -0.000
 -0.000   0.000  -0.002   0.885   0.000  -0.000  -0.070  -0.000
  0.000  -0.000  -0.001   0.000   0.881  -0.000  -0.000  -0.070
  0.000  -0.000  -0.070  -0.000  -0.000   0.001  -0.000  -0.000
  0.000  -0.000  -0.000  -0.070  -0.000  -0.000   0.001   0.000
 -0.000   0.000  -0.000  -0.000  -0.070  -0.000   0.000   0.001


------------------------ aborting loop because EDIFF is reached ----------------------------------------


    CHARGE:  cpu time      0.0427: real time      0.0431
    FORLOC:  cpu time      0.0035: real time      0.0035
    FORNL :  cpu time      0.0075: real time      0.0075
    STRESS:  cpu time      0.0323: real time      0.0325
    FORCOR:  cpu time      0.5598: real time      0.5644
    FORHAR:  cpu time      0.0546: real time      0.0551
    MIXING:  cpu time      0.0135: real time      0.0136
    OFIELD:  cpu time      0.0001: real time      0.0001

  FORCE on cell =-STRESS in cart. coord.  units (eV):
  Direction    XX          YY          ZZ          XY          YZ          ZX
  --------------------------------------------------------------------------------------
  Alpha Z     0.02546     0.02546     0.02546
  Ewald     -13.31529   -13.54347   -13.77114     0.00000     0.00000     0.00000
  Hartree    63.08630    62.85511    62.62906    -0.00092     0.00771    -0.00090
  E(xc)     -20.23978   -20.23945   -20.23935     0.00005    -0.00037     0.00002
  Local    -162.35757  -161.87445  -161.41325     0.00426    -0.03445     0.00363
  n-local    72.52103    72.51339    72.51101    -0.00108     0.00859    -0.00079
  augment   -17.85154   -17.84967   -17.84912     0.00026    -0.00205     0.00026
  Kinetic    78.12378    78.10900    78.10439    -0.00209     0.01658    -0.00198
  Fock        0.00000     0.00000     0.00000     0.00000     0.00000     0.00000
  -------------------------------------------------------------------------------------
  Total      -0.00762    -0.00408    -0.00295     0.00048    -0.00401     0.00024
  in kB      -0.00206    -0.00110    -0.00080     0.00013    -0.00108     0.00006
  external pressure =       -0.00 kB  Pullay stress =        0.00 kB


 VOLUME and BASIS-vectors are now :
 -----------------------------------------------------------------------------
  energy-cutoff  :      520.00
  volume of cell :     5929.56
      direct lattice vectors                 reciprocal lattice vectors
    18.000000000  0.000000000  0.000000000     0.055555556 -0.000000000  0.000000000
     0.000000000 18.100000000  0.000000000     0.000000000  0.055248619  0.000000000
     0.000000000  0.000000000 18.200000000    -0.000000000 -0.000000000  0.054945055

  length of vectors
    18.000000000 18.100000000 18.200000000     0.055555556  0.055248619  0.054945055


 FORCES acting on ions
    electron-ion (+dipol)            ewald-force                    non-local-force                 convergence-correction
 -----------------------------------------------------------------------------------------------
   -.470E-04 0.155E-03 0.352E-04   0.136E-16 0.133E-16 0.484E-17   0.315E-04 -.551E-04 -.164E-04   0.139E-04 -.981E-04 -.178E-04
 -----------------------------------------------------------------------------------------------
   -.470E-04 0.155E-03 0.352E-04   0.136E-16 0.133E-16 0.484E-17   0.315E-04 -.551E-04 -.164E-04   0.139E-04 -.981E-04 -.178E-04
 
 
 POSITION                                       TOTAL-FORCE (eV/Angst)
 -----------------------------------------------------------------------------------
      0.00000      0.00000      0.00000        -0.000002      0.000002      0.000001
 -----------------------------------------------------------------------------------
    total drift:                               -0.000002      0.000002      0.000001


--------------------------------------------------------------------------------------------------------



  FREE ENERGIE OF THE ION-ELECTRON SYSTEM (eV)
  ---------------------------------------------------
  free  energy   TOTEN  =        -0.90985156 eV

  energy  without entropy=       -0.87128612  energy(sigma->0) =       -0.89056884
 


--------------------------------------------------------------------------------------------------------


    POTLOK:  cpu time      0.7859: real time      0.7914


--------------------------------------------------------------------------------------------------------


     LOOP+:  cpu time     16.7857: real time     16.9067
    4ORBIT:  cpu time      0.0000: real time      0.0000

 total amount of memory used by VASP MPI-rank0    81698. kBytes
=======================================================================

   base      :      30000. kBytes
   nonl-proj :        198. kBytes
   fftplans  :      14937. kBytes
   grid      :      36243. kBytes
   one-center:          3. kBytes
   wavefun   :        317. kBytes
 
  
  
 General timing and accounting informations for this job:
 ========================================================
  
                  Total CPU time used (sec):       19.105
                            User time (sec):       16.748
                          System time (sec):        2.357
                         Elapsed time (sec):       19.785
  
                   Maximum memory used (kb):      486940.
                   Average memory used (kb):          N/A
  
                          Minor page faults:        83244
                          Major page faults:           18
                 Voluntary context switches:         1255
