 vasp.6.4.2 20Jul23 (build Aug 07 2024 12:45:50) gamma-only                     
  
 executed on             LinuxIFC date 2026.09.30  12:16:28
 running   64 mpi-ranks, on    1 nodes
 distrk:  each k-point on   64 cores,    1 groups
 distr:  one band on NCORE=  32 cores,    2 groups


--------------------------------------------------------------------------------------------------------


 INCAR:
   ALGO = Normal
   EDIFF = 1e-05
   EFERMI = Midgap
   ENCUT = 520.0
   GGA = Pe
   GGA_COMPAT = False
   IBRION = -1
   ISMEAR = 0
   ISPIN = 1
   ISYM = 0
   LAECHG = False
   LASPH = True
   LCHARG = False
   LMAXMIX = 6
   LMIXTAU = True
   LREAL = False
   LWAVE = False
   NCORE = 32
   NELM = 400
   NSW = 0
   PREC = Accurate
   SIGMA = 0.05
   SYSTEM = F_atom_ispin1

 POTCAR:    PAW_PBE F 08Apr2002                   
 -----------------------------------------------------------------------------
|                                                                             |
|           W    W    AA    RRRRR   N    N  II  N    N   GGGG   !!!           |
|           W    W   A  A   R    R  NN   N  II  NN   N  G    G  !!!           |
|           W    W  A    A  R    R  N N  N  II  N N  N  G       !!!           |
|           W WW W  AAAAAA  RRRRR   N  N N  II  N  N N  G  GGG   !            |
|           WW  WW  A    A  R   R   N   NN  II  N   NN  G    G                |
|           W    W  A    A  R    R  N    N  II  N    N   GGGG   !!!           |
|                                                                             |
|     For optimal performance we recommend to set                             |
|       NCORE = 2 up to number-of-cores-per-socket                            |
|     NCORE specifies how many cores store one orbital (NPAR=cpu/NCORE).      |
|     This setting can greatly improve the performance of VASP for DFT.       |
|     The default, NCORE=1 might be grossly inefficient on modern             |
|     multi-core architectures or massively parallel machines. Do your        |
|     own testing! More info at https://www.vasp.at/wiki/index.php/NCORE      |
|     Unfortunately you need to use the default for GW and RPA                |
|     calculations (for HF NCORE is supported but not extensively tested      |
|     yet).                                                                   |
|                                                                             |
 -----------------------------------------------------------------------------

 POTCAR:    PAW_PBE F 08Apr2002                   
   SHA256 =  53c630871ac675939349fc2b976745ee17808dedc90b5bdde026bc81f0faf456 F/POTCAR              
   COPYR  = (c) Copyright 08Apr2002 Georg Kresse                                                    
   COPYR  = This file is part of the software VASP. Any use, copying, and all other rights are regul
   COPYR  = If you do not have a valid VASP license, you may not use, copy or distribute this file. 
   VRHFIN =F: s2p5                                                                                  
   LEXCH  = PE                                                                                      
   EATOM  =   659.6475 eV,   48.4827 Ry                                                             
                                                                                                    
   TITEL  = PAW_PBE F 08Apr2002                                                                     
   LULTRA =        F    use ultrasoft PP ?                                                          
   IUNSCR =        1    unscreen: 0-lin 1-nonlin 2-no                                               
   RPACOR =    1.200    partial core radius                                                         
   POMASS =   18.998; ZVAL   =    7.000    mass and valenz                                          
   RCORE  =    1.520    outmost cutoff radius                                                       
   RWIGS  =    1.500; RWIGS  =    0.794    wigner-seitz radius (au A)                               
   ENMAX  =  400.000; ENMIN  =  300.000 eV                                                          
   ICORE  =        2    local potential                                                             
   LCOR   =        T    correct aug charges                                                         
   LPAW   =        T    paw PP                                                                      
   EAUG   =  613.614                                                                                
   RMAX   =    1.555    core radius for proj-oper                                                   
   RAUG   =    1.300    factor for augmentation sphere                                              
   RDEP   =    1.539    radius for radial grids                                                     
   RDEPT  =    1.299    core radius for aug-charge                                                  
                                                                                                    
   Atomic configuration                                                                             
    4 entries                                                                                       
     n  l   j            E        occ.                                                              
     1  0  0.50      -663.3661   2.0000                                                             
     2  0  0.50       -29.8995   2.0000                                                             
     2  1  0.50       -11.1114   5.0000                                                             
     3  2  1.50       -10.8847   0.0000                                                             
   Description                                                                                      
     l       E           TYP  RCUT    TYP  RCUT                                                     
     0    -29.8995018     23  1.200                                                                 
     0     -9.5240782     23  1.200                                                                 
     1    -11.1113914     23  1.520                                                                 
     1      1.3605826     23  1.520                                                                 
     2    -10.8846608      7  1.500                                                                 
  local pseudopotential read in
  partial core-charges read in
  partial kinetic energy density read in
  atomic valenz-charges read in
  non local Contribution for L=           0  read in
    real space projection operators read in
  non local Contribution for L=           0  read in
    real space projection operators read in
  non local Contribution for L=           1  read in
    real space projection operators read in
  non local Contribution for L=           1  read in
    real space projection operators read in
    PAW grid and wavefunctions read in
 
   number of l-projection  operators is LMAX  =           4
   number of lm-projection operators is LMMAX =           8
 
  PAW_PBE F 08Apr2002                   :
 energy of atom  1       EATOM= -659.6475
 kinetic energy error for atom=    0.0323 (will be added to EATOM!!)
 
 
 POSCAR: F1
  positions in direct lattice
  No initial velocities read in
 exchange correlation table for  LEXCH =        8
   RHO(1)=    0.500       N(1)  =     2000
   RHO(2)=  100.500       N(2)  =     4000
 


--------------------------------------------------------------------------------------------------------


 ion  position               nearest neighbor table
   1  0.000  0.000  0.000-
 

IMPORTANT INFORMATION: All symmetrisations will be switched off!
NOSYMM: (Re-)initialisation of all symmetry stuff for point group C_1.


----------------------------------------------------------------------------------------

                                     Primitive cell                                     

  volume of cell :    3442.8000

  direct lattice vectors                    reciprocal lattice vectors
    15.000000000  0.000000000  0.000000000     0.066666667 -0.000000000  0.000000000
     0.000000000 15.100000000  0.000000000     0.000000000  0.066225166  0.000000000
     0.000000000  0.000000000 15.200000000    -0.000000000 -0.000000000  0.065789474

  length of vectors
    15.000000000 15.100000000 15.200000000     0.066666667  0.066225166  0.065789474

  position of ions in fractional coordinates (direct lattice)
     0.000000000  0.000000000  0.000000000

  ion indices of the primitive-cell ions
   primitive index   ion index
                 1           1

----------------------------------------------------------------------------------------

 
 
 KPOINTS: Automatic kpoint scheme                 

Automatic generation of k-mesh.
 Grid dimensions read from file:
 generate k-points for:    1    1    1

 Generating k-lattice:

  Cartesian coordinates                     Fractional coordinates (reciprocal lattice)
     0.066666667 -0.000000000  0.000000000     1.000000000 -0.000000000  0.000000000
     0.000000000  0.066225166  0.000000000     0.000000000  1.000000000  0.000000000
    -0.000000000 -0.000000000  0.065789474     0.000000000 -0.000000000  1.000000000

  Length of vectors
     0.066666667  0.066225166  0.065789474

  Shift w.r.t. Gamma in fractional coordinates (k-lattice)
     0.000000000  0.000000000  0.000000000

 
 Subroutine IBZKPT returns following result:
 ===========================================
 
 Found      1 irreducible k-points:
 
 Following reciprocal coordinates:
            Coordinates               Weight
  0.000000  0.000000  0.000000      1.000000
 
 Following cartesian coordinates:
            Coordinates               Weight
  0.000000  0.000000  0.000000      1.000000
 


--------------------------------------------------------------------------------------------------------




 Dimension of arrays:
   k-points           NKPTS =      1   k-points in BZ     NKDIM =      1   number of bands    NBANDS=      8
   number of dos      NEDOS =    301   number of ions     NIONS =      1
   non local maximal  LDIM  =      4   non local SUM 2l+1 LMDIM =      8
   total plane-waves  NPLWV = ******
   max r-space proj   IRMAX =      1   max aug-charges    IRDMAX=   5758
   dimension x,y,z NGX =   112 NGY =  112 NGZ =  120
   dimension x,y,z NGXF=   224 NGYF=  224 NGZF=  240
   support grid    NGXF=   224 NGYF=  224 NGZF=  240
   ions per type =               1
   NGX,Y,Z   is equivalent  to a cutoff of  12.41, 12.33, 13.12 a.u.
   NGXF,Y,Z  is equivalent  to a cutoff of  24.83, 24.66, 26.25 a.u.

 SYSTEM =  F_atom_ispin1                           
 POSCAR =  F1                                      

 Startparameter for this run:
   NWRITE =      2    write-flag & timer
   PREC   = accura    normal or accurate (medium, high low for compatibility)
   ISTART =      0    job   : 0-new  1-cont  2-samecut
   ICHARG =      2    charge: 1-file 2-atom 10-const
   ISPIN  =      1    spin polarized calculation?
   LNONCOLLINEAR =      F non collinear calculations
   LSORBIT =      F    spin-orbit coupling
   INIWAV =      1    electr: 0-lowe 1-rand  2-diag
   LASPH  =      T    aspherical Exc in radial PAW
 Electronic Relaxation 1
   ENCUT  =  520.0 eV  38.22 Ry    6.18 a.u.  27.89 28.08 28.26*2*pi/ulx,y,z
   ENINI  =  520.0     initial cutoff
   ENAUG  =  613.6 eV  augmentation charge cutoff
   NELM   =    400;   NELMIN=  2; NELMDL= -5     # of ELM steps 
   EDIFF  = 0.1E-04   stopping-criterion for ELM
   LREAL  =      F    real-space projection
   NLSPLINE    = F    spline interpolate recip. space projectors
   LCOMPAT=      F    compatible to vasp.4.4
   GGA_COMPAT  = F    GGA compatible to vasp.4.4-vasp.4.6
   LMAXPAW     = -100 max onsite density
   LMAXMIX     =    6 max onsite mixed and CHGCAR
   VOSKOWN=      0    Vosko Wilk Nusair interpolation
   ROPT   =    0.00000
 Ionic relaxation
   EDIFFG = 0.1E-03   stopping-criterion for IOM
   NSW    =      0    number of steps for IOM
   NBLOCK =      1;   KBLOCK =      1    inner block; outer block 
   IBRION =     -1    ionic relax: 0-MD 1-quasi-New 2-CG
   NFREE  =      0    steps in history (QN), initial steepest desc. (CG)
   ISIF   =      2    stress and relaxation
   IWAVPR =     10    prediction:  0-non 1-charg 2-wave 3-comb
   ISYM   =      0    0-nonsym 1-usesym 2-fastsym
   LCORR  =      T    Harris-Foulkes like correction to forces

   POTIM  = 0.5000    time-step for ionic-motion
   TEIN   =    0.0    initial temperature
   TEBEG  =    0.0;   TEEND  =   0.0 temperature during run
   SMASS  =  -3.00    Nose mass-parameter (am)
   estimated Nose-frequenzy (Omega)   =  0.10E-29 period in steps = 0.13E+47 mass=  -0.514E-26a.u.
   SCALEE = 1.0000    scale energy and forces
   NPACO  =    256;   APACO  = 10.0  distance and # of slots for P.C.
   PSTRESS=    0.0 pullay stress

  Mass of Ions in am
   POMASS =  19.00
  Ionic Valenz
   ZVAL   =   7.00
  Atomic Wigner-Seitz radii
   RWIGS  =  -1.00
  virtual crystal weights 
   VCA    =   1.00
   NELECT =       7.0000    total number of electrons
   NUPDOWN=      -1.0000    fix difference up-down

 DOS related values:
   EMIN   =  10.00;   EMAX   =-10.00  energy-range for DOS
   EFERMI =   0.00;   METHOD = MIDGAP      
   ISMEAR =     0;   SIGMA  =   0.05  broadening in eV -4-tet -1-fermi 0-gaus

 Electronic relaxation 2 (details)
   IALGO  =     38    algorithm
   LDIAG  =      T    sub-space diagonalisation (order eigenvalues)
   LSUBROT=      F    optimize rotation matrix (better conditioning)
   TURBO    =      0    0=normal 1=particle mesh
   IRESTART =      0    0=no restart 2=restart with 2 vectors
   NREBOOT  =      0    no. of reboots
   NMIN     =      0    reboot dimension
   EREF     =   0.00    reference energy to select bands
   IMIX   =      4    mixing-type and parameters
     AMIX     =   0.40;   BMIX     =  1.00
     AMIX_MAG =   1.60;   BMIX_MAG =  1.00
     AMIN     =   0.10
     WC   =   100.;   INIMIX=   1;  MIXPRE=   1;  MAXMIX= -45

 Intra band minimization:
   WEIMIN = 0.0000     energy-eigenvalue tresh-hold
   EBREAK =  0.31E-06  absolut break condition
   DEPER  =   0.30     relativ break condition  

   TIME   =   0.40     timestep for ELM

  volume/ion in A,a.u.               =    3442.80     23233.16
  Fermi-wavevector in a.u.,A,eV,Ry     =   0.207398  0.391925  0.585237  0.043014
  Thomas-Fermi vector in A             =   0.971082
 
 Write flags
   LWAVE        =      F    write WAVECAR
   LDOWNSAMPLE  =      F    k-point downsampling of WAVECAR
   LCHARG       =      F    write CHGCAR
   LVTOT        =      F    write LOCPOT, total local potential
   LVHAR        =      F    write LOCPOT, Hartree potential only
   LELF         =      F    write electronic localiz. function (ELF)
   LORBIT       =      0    0 simple, 1 ext, 2 COOP (PROOUT), +10 PAW based schemes


 Dipole corrections
   LMONO  =      F    monopole corrections only (constant potential shift)
   LDIPOL =      F    correct potential (dipole corrections)
   IDIPOL =      0    1-x, 2-y, 3-z, 4-all directions 
   EPSILON=  1.0000000 bulk dielectric constant

 Exchange correlation treatment:
   GGA     =    PE    GGA type
   LEXCH   =     8    internal setting for exchange type
   LIBXC   =     F    Libxc                    
   VOSKOWN =     0    Vosko Wilk Nusair interpolation
   LHFCALC =     F    Hartree Fock is set to
   LHFONE  =     F    Hartree Fock one center treatment
   AEXX    =    0.0000 exact exchange contribution

 Linear response parameters
   LEPSILON=     F    determine dielectric tensor
   LRPA    =     F    only Hartree local field effects (RPA)
   LNABLA  =     F    use nabla operator in PAW spheres
   LVEL    =     F    velocity operator in full k-point grid
   CSHIFT  =0.1000    complex shift for real part using Kramers Kronig
   OMEGAMAX=  -1.0    maximum frequency
   DEG_THRESHOLD= 0.2000000E-02 threshold for treating states as degnerate
   RTIME   =   -0.100 relaxation time in fs
  (WPLASMAI=    0.000 imaginary part of plasma frequency in eV, 0.658/RTIME)
   DFIELD  = 0.0000000 0.0000000 0.0000000 field for delta impulse in time
 
  Optional k-point grid parameters
   LKPOINTS_OPT  =     F    use optional k-point grid
   KPOINTS_OPT_MODE=     1    mode for optional k-point grid
 
 Orbital magnetization related:
   ORBITALMAG=     F  switch on orbital magnetization
   LCHIMAG   =     F  perturbation theory with respect to B field
   DQ        =  0.001000  dq finite difference perturbation B field
   LLRAUG    =     F  two centre corrections for induced B field
   LBONE     =     F  B-component reconstruction in AE one-centre
   LVGVCALC  =     T  calculate vGv susceptibility
   LVGVAPPL  =     F  apply vGv susceptibility instead of pGv for G=0

 Random number generation:
   RANDOM_GENERATOR = DEFAULT
   PCG_SEED         = not used


--------------------------------------------------------------------------------------------------------


 Static calculation
 charge density and potential will be updated during run
 non-spin polarized calculation
 Variant of blocked Davidson
 Davidson routine will perform the subspace rotation
 perform sub-space diagonalisation
    after iterative eigenvector-optimisation
 modified Broyden-mixing scheme, WC =      100.0
 initial mixing is a Kerker type mixing with AMIX =  0.4000 and BMIX =      1.0000
 Hartree-type preconditioning will be used
 using additional bands            4
 reciprocal scheme for non local part
 use partial core corrections
 calculate Harris-corrections to forces 
   (improved forces if not selfconsistent)
 use gradient corrections 
 use of overlap-Matrix (Vanderbilt PP)
 Gauss-broadening in eV      SIGMA  =   0.05


--------------------------------------------------------------------------------------------------------


  energy-cutoff  :      520.00
  volume of cell :     3442.80
      direct lattice vectors                 reciprocal lattice vectors
    15.000000000  0.000000000  0.000000000     0.066666667 -0.000000000  0.000000000
     0.000000000 15.100000000  0.000000000     0.000000000  0.066225166  0.000000000
     0.000000000  0.000000000 15.200000000    -0.000000000 -0.000000000  0.065789474

  length of vectors
    15.000000000 15.100000000 15.200000000     0.066666667  0.066225166  0.065789474


 
 k-points in units of 2pi/SCALE and weight: Automatic kpoint scheme                 
   0.00000000  0.00000000  0.00000000       1.000
 
 k-points in reciprocal lattice and weights: Automatic kpoint scheme                 
   0.00000000  0.00000000  0.00000000       1.000
 
 position of ions in fractional coordinates (direct lattice) 
   0.00000000  0.00000000  0.00000000
 
 position of ions in cartesian coordinates  (Angst):
   0.00000000  0.00000000  0.00000000
 


--------------------------------------------------------------------------------------------------------


 use parallel FFT for orbitals z direction half grid
 k-point   1 :   0.0000 0.0000 0.0000  plane waves:   46338

 maximum and minimum number of plane-waves per node :      1457     1434

 maximum number of plane-waves:     46338
 maximum index in each direction: 
   IXMAX=   27   IYMAX=   28   IZMAX=   28
   IXMIN=  -27   IYMIN=  -28   IZMIN=    0


 parallel 3D FFT for wavefunctions:
    minimum data exchange during FFTs selected (reduces bandwidth)
 parallel 3D FFT for charge:
    minimum data exchange during FFTs selected (reduces bandwidth)


 total amount of memory used by VASP MPI-rank0    50902. kBytes
=======================================================================

   base      :      30000. kBytes
   nonl-proj :        116. kBytes
   fftplans  :       8156. kBytes
   grid      :      12536. kBytes
   one-center:          1. kBytes
   wavefun   :         93. kBytes
 
     INWAV:  cpu time      0.0000: real time      0.0000
 Broyden mixing: mesh for mixing (old mesh)
   NGX = 55   NGY = 57   NGZ = 57
  (NGX  =224   NGY  =224   NGZ  =240)
  gives a total of 178695 points

 initial charge density was supplied:
 charge density of overlapping atoms calculated
 number of electron       7.0000000 magnetization 
 keeping initial charge density in first step


--------------------------------------------------------------------------------------------------------


 Maximum index for augmentation-charges          379 (set IRDMAX)


--------------------------------------------------------------------------------------------------------


 First call to EWALD:  gamma=   0.117
 Maximum number of real-space cells 3x 3x 3
 Maximum number of reciprocal cells 3x 3x 3

    FEWALD:  cpu time      0.0011: real time      0.0011


--------------------------------------- Ionic step        1  -------------------------------------------




--------------------------------------- Iteration      1(   1)  ---------------------------------------


    POTLOK:  cpu time      0.1222: real time      0.1232
    SETDIJ:  cpu time      0.0448: real time      0.0451
     EDDAV:  cpu time      0.0215: real time      0.0218
       DOS:  cpu time      0.0004: real time      0.0004
    --------------------------------------------
      LOOP:  cpu time      0.1890: real time      0.1905

 eigenvalue-minimisations  :    16
 total energy-change (2. order) : 0.7285334E+02  (-0.9516351E+02)
 number of electron       7.0000000 magnetization 
 augmentation part        7.0000000 magnetization 

 Free energy of the ion-electron system (eV)
  ---------------------------------------------------
  alpha Z        PSCENC =         0.05101412
  Ewald energy   TEWEN  =       -66.28833240
  -Hartree energ DENC   =      -509.23728492
  -exchange      EXHF   =         0.00000000
  -V(xc)+E(xc)   XCENC  =        36.14196000
  PAW double counting   =       539.20781056     -544.30938997
  entropy T*S    EENTRO =        -0.02820948
  eigenvalues    EBANDS =       -42.29940233
  atomic energy  EATOM  =       659.61517142
  Solvation  Ediel_sol  =         0.00000000
  ---------------------------------------------------
  free energy    TOTEN  =        72.85333699 eV

  energy without entropy =       72.88154647  energy(sigma->0) =       72.86744173


--------------------------------------------------------------------------------------------------------




--------------------------------------- Iteration      1(   2)  ---------------------------------------


     EDDAV:  cpu time      0.0200: real time      0.0209
       DOS:  cpu time      0.0003: real time      0.0003
    --------------------------------------------
      LOOP:  cpu time      0.0204: real time      0.0212

 eigenvalue-minimisations  :    16
 total energy-change (2. order) :-0.1550929E+02  (-0.1550485E+02)
 number of electron       7.0000000 magnetization 
 augmentation part        7.0000000 magnetization 

 Free energy of the ion-electron system (eV)
  ---------------------------------------------------
  alpha Z        PSCENC =         0.05101412
  Ewald energy   TEWEN  =       -66.28833240
  -Hartree energ DENC   =      -509.23728492
  -exchange      EXHF   =         0.00000000
  -V(xc)+E(xc)   XCENC  =        36.14196000
  PAW double counting   =       539.20781056     -544.30938997
  entropy T*S    EENTRO =        -0.03996226
  eigenvalues    EBANDS =       -57.79693899
  atomic energy  EATOM  =       659.61517142
  Solvation  Ediel_sol  =         0.00000000
  ---------------------------------------------------
  free energy    TOTEN  =        57.34404755 eV

  energy without entropy =       57.38400981  energy(sigma->0) =       57.36402868


--------------------------------------------------------------------------------------------------------




--------------------------------------- Iteration      1(   3)  ---------------------------------------


     EDDAV:  cpu time      0.0302: real time      0.0305
       DOS:  cpu time      0.0004: real time      0.0004
    --------------------------------------------
      LOOP:  cpu time      0.0306: real time      0.0309

 eigenvalue-minimisations  :    32
 total energy-change (2. order) :-0.3484233E+02  (-0.3373600E+02)
 number of electron       7.0000000 magnetization 
 augmentation part        7.0000000 magnetization 

 Free energy of the ion-electron system (eV)
  ---------------------------------------------------
  alpha Z        PSCENC =         0.05101412
  Ewald energy   TEWEN  =       -66.28833240
  -Hartree energ DENC   =      -509.23728492
  -exchange      EXHF   =         0.00000000
  -V(xc)+E(xc)   XCENC  =        36.14196000
  PAW double counting   =       539.20781056     -544.30938997
  entropy T*S    EENTRO =        -0.02820948
  eigenvalues    EBANDS =       -92.65102650
  atomic energy  EATOM  =       659.61517142
  Solvation  Ediel_sol  =         0.00000000
  ---------------------------------------------------
  free energy    TOTEN  =        22.50171282 eV

  energy without entropy =       22.52992230  energy(sigma->0) =       22.51581756


--------------------------------------------------------------------------------------------------------




--------------------------------------- Iteration      1(   4)  ---------------------------------------


     EDDAV:  cpu time      0.0182: real time      0.0183
       DOS:  cpu time      0.0003: real time      0.0003
    --------------------------------------------
      LOOP:  cpu time      0.0185: real time      0.0186

 eigenvalue-minimisations  :    16
 total energy-change (2. order) :-0.2175243E+02  (-0.2175236E+02)
 number of electron       7.0000000 magnetization 
 augmentation part        7.0000000 magnetization 

 Free energy of the ion-electron system (eV)
  ---------------------------------------------------
  alpha Z        PSCENC =         0.05101412
  Ewald energy   TEWEN  =       -66.28833240
  -Hartree energ DENC   =      -509.23728492
  -exchange      EXHF   =         0.00000000
  -V(xc)+E(xc)   XCENC  =        36.14196000
  PAW double counting   =       539.20781056     -544.30938997
  entropy T*S    EENTRO =        -0.02888333
  eigenvalues    EBANDS =      -114.40278460
  atomic energy  EATOM  =       659.61517142
  Solvation  Ediel_sol  =         0.00000000
  ---------------------------------------------------
  free energy    TOTEN  =         0.74928087 eV

  energy without entropy =        0.77816420  energy(sigma->0) =        0.76372253


--------------------------------------------------------------------------------------------------------




--------------------------------------- Iteration      1(   5)  ---------------------------------------


     EDDAV:  cpu time      0.0179: real time      0.0181
       DOS:  cpu time      0.0003: real time      0.0003
    CHARGE:  cpu time      0.0113: real time      0.0115
    MIXING:  cpu time      0.0032: real time      0.0032
    --------------------------------------------
      LOOP:  cpu time      0.0328: real time      0.0331

 eigenvalue-minimisations  :    16
 total energy-change (2. order) :-0.8096196E+00  (-0.7859517E+00)
 number of electron       6.9999993 magnetization 
 augmentation part        1.1884012 magnetization 

 Broyden mixing:
  rms(total) = 0.11429E-01    rms(broyden)= 0.10849E-01
  rms(prec ) = 0.11411E-01
  weight for this iteration     100.00

 Free energy of the ion-electron system (eV)
  ---------------------------------------------------
  alpha Z        PSCENC =         0.05101412
  Ewald energy   TEWEN  =       -66.28833240
  -Hartree energ DENC   =      -509.23728492
  -exchange      EXHF   =         0.00000000
  -V(xc)+E(xc)   XCENC  =        36.14196000
  PAW double counting   =       539.20781056     -544.30938997
  entropy T*S    EENTRO =        -0.05299820
  eigenvalues    EBANDS =      -115.18828930
  atomic energy  EATOM  =       659.61517142
  Solvation  Ediel_sol  =         0.00000000
  ---------------------------------------------------
  free energy    TOTEN  =        -0.06033870 eV

  energy without entropy =       -0.00734050  energy(sigma->0) =       -0.03383960


--------------------------------------------------------------------------------------------------------




--------------------------------------- Iteration      1(   6)  ---------------------------------------


    POTLOK:  cpu time      0.1273: real time      0.1285
    SETDIJ:  cpu time      0.0444: real time      0.0447
     EDDAV:  cpu time      0.0186: real time      0.0187
       DOS:  cpu time      0.0004: real time      0.0004
    CHARGE:  cpu time      0.0110: real time      0.0111
    MIXING:  cpu time      0.0021: real time      0.0022
    --------------------------------------------
      LOOP:  cpu time      0.2038: real time      0.2055

 eigenvalue-minimisations  :    16
 total energy-change (2. order) :-0.5690094E-02  (-0.5802646E-02)
 number of electron       6.9999993 magnetization 
 augmentation part        1.1908972 magnetization 

 Broyden mixing:
  rms(total) = 0.45442E-01    rms(broyden)= 0.45296E-01
  rms(prec ) = 0.47179E-01
  weight for this iteration     100.00

 eigenvalues of (default mixing * dielectric matrix)
  average eigenvalue GAMMA=   0.1450
  0.1450

 Free energy of the ion-electron system (eV)
  ---------------------------------------------------
  alpha Z        PSCENC =         0.05101412
  Ewald energy   TEWEN  =       -66.28833240
  -Hartree energ DENC   =      -509.06478305
  -exchange      EXHF   =         0.00000000
  -V(xc)+E(xc)   XCENC  =        36.13173735
  PAW double counting   =       538.98434361     -544.09014024
  entropy T*S    EENTRO =        -0.05284971
  eigenvalues    EBANDS =      -115.35218988
  atomic energy  EATOM  =       659.61517142
  Solvation  Ediel_sol  =         0.00000000
  ---------------------------------------------------
  free energy    TOTEN  =        -0.06602879 eV

  energy without entropy =       -0.01317908  energy(sigma->0) =       -0.03960394


--------------------------------------------------------------------------------------------------------




--------------------------------------- Iteration      1(   7)  ---------------------------------------


    POTLOK:  cpu time      0.1205: real time      0.1216
    SETDIJ:  cpu time      0.0444: real time      0.0445
     EDDAV:  cpu time      0.0346: real time      0.0348
       DOS:  cpu time      0.0003: real time      0.0003
    CHARGE:  cpu time      0.0118: real time      0.0119
    MIXING:  cpu time      0.0031: real time      0.0031
    --------------------------------------------
      LOOP:  cpu time      0.2146: real time      0.2163

 eigenvalue-minimisations  :    32
 total energy-change (2. order) : 0.9193405E-03  (-0.1473205E-03)
 number of electron       6.9999993 magnetization 
 augmentation part        1.1913925 magnetization 

 Broyden mixing:
  rms(total) = 0.77589E-02    rms(broyden)= 0.73581E-02
  rms(prec ) = 0.77504E-02
  weight for this iteration     100.00

 eigenvalues of (default mixing * dielectric matrix)
  average eigenvalue GAMMA=   0.3526
  0.5605  0.1447

 Free energy of the ion-electron system (eV)
  ---------------------------------------------------
  alpha Z        PSCENC =         0.05101412
  Ewald energy   TEWEN  =       -66.28833240
  -Hartree energ DENC   =      -509.08028149
  -exchange      EXHF   =         0.00000000
  -V(xc)+E(xc)   XCENC  =        36.13332565
  PAW double counting   =       539.00309092     -544.11067264
  entropy T*S    EENTRO =        -0.05300111
  eigenvalues    EBANDS =      -115.33542392
  atomic energy  EATOM  =       659.61517142
  Solvation  Ediel_sol  =         0.00000000
  ---------------------------------------------------
  free energy    TOTEN  =        -0.06510945 eV

  energy without entropy =       -0.01210834  energy(sigma->0) =       -0.03860889


--------------------------------------------------------------------------------------------------------




--------------------------------------- Iteration      1(   8)  ---------------------------------------


    POTLOK:  cpu time      0.1400: real time      0.1412
    SETDIJ:  cpu time      0.0445: real time      0.0448
     EDDAV:  cpu time      0.0193: real time      0.0195
       DOS:  cpu time      0.0004: real time      0.0004
    CHARGE:  cpu time      0.0115: real time      0.0117
    MIXING:  cpu time      0.0022: real time      0.0022
    --------------------------------------------
      LOOP:  cpu time      0.2179: real time      0.2198

 eigenvalue-minimisations  :    16
 total energy-change (2. order) :-0.8012258E-03  (-0.1291336E-04)
 number of electron       6.9999993 magnetization 
 augmentation part        1.1909460 magnetization 

 Broyden mixing:
  rms(total) = 0.63907E-02    rms(broyden)= 0.63759E-02
  rms(prec ) = 0.66309E-02
  weight for this iteration     100.00

 eigenvalues of (default mixing * dielectric matrix)
  average eigenvalue GAMMA=   0.4817
  0.1411  0.6521  0.6521

 Free energy of the ion-electron system (eV)
  ---------------------------------------------------
  alpha Z        PSCENC =         0.05101412
  Ewald energy   TEWEN  =       -66.28833240
  -Hartree energ DENC   =      -509.15321392
  -exchange      EXHF   =         0.00000000
  -V(xc)+E(xc)   XCENC  =        36.13719631
  PAW double counting   =       539.11018023     -544.22485960
  entropy T*S    EENTRO =        -0.05299991
  eigenvalues    EBANDS =      -115.26006692
  atomic energy  EATOM  =       659.61517142
  Solvation  Ediel_sol  =         0.00000000
  ---------------------------------------------------
  free energy    TOTEN  =        -0.06591068 eV

  energy without entropy =       -0.01291077  energy(sigma->0) =       -0.03941072


--------------------------------------------------------------------------------------------------------




--------------------------------------- Iteration      1(   9)  ---------------------------------------


    POTLOK:  cpu time      0.1204: real time      0.1214
    SETDIJ:  cpu time      0.0443: real time      0.0445
     EDDAV:  cpu time      0.0310: real time      0.0312
       DOS:  cpu time      0.0004: real time      0.0004
    CHARGE:  cpu time      0.0118: real time      0.0119
    MIXING:  cpu time      0.0022: real time      0.0022
    --------------------------------------------
      LOOP:  cpu time      0.2100: real time      0.2116

 eigenvalue-minimisations  :    32
 total energy-change (2. order) :-0.5673639E-04  (-0.1707476E-04)
 number of electron       6.9999993 magnetization 
 augmentation part        1.1907159 magnetization 

 Broyden mixing:
  rms(total) = 0.13686E-01    rms(broyden)= 0.13603E-01
  rms(prec ) = 0.14168E-01
  weight for this iteration     100.00

 eigenvalues of (default mixing * dielectric matrix)
  average eigenvalue GAMMA=   0.8153
  2.2367  0.7338  0.1395  0.1512

 Free energy of the ion-electron system (eV)
  ---------------------------------------------------
  alpha Z        PSCENC =         0.05101412
  Ewald energy   TEWEN  =       -66.28833240
  -Hartree energ DENC   =      -509.19105413
  -exchange      EXHF   =         0.00000000
  -V(xc)+E(xc)   XCENC  =        36.13942108
  PAW double counting   =       539.18398777     -544.30339380
  entropy T*S    EENTRO =        -0.05298799
  eigenvalues    EBANDS =      -115.21979349
  atomic energy  EATOM  =       659.61517142
  Solvation  Ediel_sol  =         0.00000000
  ---------------------------------------------------
  free energy    TOTEN  =        -0.06596741 eV

  energy without entropy =       -0.01297943  energy(sigma->0) =       -0.03947342


--------------------------------------------------------------------------------------------------------




--------------------------------------- Iteration      1(  10)  ---------------------------------------


    POTLOK:  cpu time      0.1251: real time      0.1263
    SETDIJ:  cpu time      0.0443: real time      0.0445
     EDDAV:  cpu time      0.0251: real time      0.0252
       DOS:  cpu time      0.0004: real time      0.0004
    CHARGE:  cpu time      0.0119: real time      0.0120
    MIXING:  cpu time      0.0023: real time      0.0023
    --------------------------------------------
      LOOP:  cpu time      0.2090: real time      0.2107

 eigenvalue-minimisations  :    24
 total energy-change (2. order) : 0.1095035E-04  (-0.2295832E-04)
 number of electron       6.9999993 magnetization 
 augmentation part        1.1901738 magnetization 

 Broyden mixing:
  rms(total) = 0.35188E-02    rms(broyden)= 0.33159E-02
  rms(prec ) = 0.34966E-02
  weight for this iteration     100.00

 eigenvalues of (default mixing * dielectric matrix)
  average eigenvalue GAMMA=   0.8398
  2.3242  0.7942  0.7942  0.1457  0.1408

 Free energy of the ion-electron system (eV)
  ---------------------------------------------------
  alpha Z        PSCENC =         0.05101412
  Ewald energy   TEWEN  =       -66.28833240
  -Hartree energ DENC   =      -509.28110663
  -exchange      EXHF   =         0.00000000
  -V(xc)+E(xc)   XCENC  =        36.14486637
  PAW double counting   =       539.37586005     -544.50766783
  entropy T*S    EENTRO =        -0.05300081
  eigenvalues    EBANDS =      -115.12276076
  atomic energy  EATOM  =       659.61517142
  Solvation  Ediel_sol  =         0.00000000
  ---------------------------------------------------
  free energy    TOTEN  =        -0.06595646 eV

  energy without entropy =       -0.01295565  energy(sigma->0) =       -0.03945606


--------------------------------------------------------------------------------------------------------




--------------------------------------- Iteration      1(  11)  ---------------------------------------


    POTLOK:  cpu time      0.1189: real time      0.1200
    SETDIJ:  cpu time      0.0445: real time      0.0447
     EDDAV:  cpu time      0.0212: real time      0.0214
       DOS:  cpu time      0.0007: real time      0.0008
    CHARGE:  cpu time      0.0109: real time      0.0110
    MIXING:  cpu time      0.0035: real time      0.0035
    --------------------------------------------
      LOOP:  cpu time      0.1997: real time      0.2013

 eigenvalue-minimisations  :    16
 total energy-change (2. order) :-0.1764434E-03  (-0.3403614E-05)
 number of electron       6.9999993 magnetization 
 augmentation part        1.1903259 magnetization 

 Broyden mixing:
  rms(total) = 0.38528E-02    rms(broyden)= 0.38202E-02
  rms(prec ) = 0.39882E-02
  weight for this iteration     100.00

 eigenvalues of (default mixing * dielectric matrix)
  average eigenvalue GAMMA=   0.8758
  2.5794  1.1303  1.1303  0.1489  0.1399  0.1256

 Free energy of the ion-electron system (eV)
  ---------------------------------------------------
  alpha Z        PSCENC =         0.05101412
  Ewald energy   TEWEN  =       -66.28833240
  -Hartree energ DENC   =      -509.25166841
  -exchange      EXHF   =         0.00000000
  -V(xc)+E(xc)   XCENC  =        36.14285463
  PAW double counting   =       539.35906452     -544.49023670
  entropy T*S    EENTRO =        -0.05300033
  eigenvalues    EBANDS =      -115.15099976
  atomic energy  EATOM  =       659.61517142
  Solvation  Ediel_sol  =         0.00000000
  ---------------------------------------------------
  free energy    TOTEN  =        -0.06613291 eV

  energy without entropy =       -0.01313257  energy(sigma->0) =       -0.03963274


--------------------------------------------------------------------------------------------------------




--------------------------------------- Iteration      1(  12)  ---------------------------------------


    POTLOK:  cpu time      0.1260: real time      0.1271
    SETDIJ:  cpu time      0.0444: real time      0.0446
     EDDAV:  cpu time      0.0309: real time      0.0312
       DOS:  cpu time      0.0004: real time      0.0004
    CHARGE:  cpu time      0.0116: real time      0.0117
    MIXING:  cpu time      0.0022: real time      0.0022
    --------------------------------------------
      LOOP:  cpu time      0.2154: real time      0.2172

 eigenvalue-minimisations  :    32
 total energy-change (2. order) : 0.3438674E-04  (-0.1761746E-05)
 number of electron       6.9999993 magnetization 
 augmentation part        1.1904839 magnetization 

 Broyden mixing:
  rms(total) = 0.18155E-02    rms(broyden)= 0.17900E-02
  rms(prec ) = 0.18648E-02
  weight for this iteration     100.00

 eigenvalues of (default mixing * dielectric matrix)
  average eigenvalue GAMMA=   0.8498
  2.5165  1.2080  0.9007  0.9007  0.1474  0.1409  0.1343

 Free energy of the ion-electron system (eV)
  ---------------------------------------------------
  alpha Z        PSCENC =         0.05101412
  Ewald energy   TEWEN  =       -66.28833240
  -Hartree energ DENC   =      -509.22494059
  -exchange      EXHF   =         0.00000000
  -V(xc)+E(xc)   XCENC  =        36.14118800
  PAW double counting   =       539.34399625     -544.47455889
  entropy T*S    EENTRO =        -0.05300115
  eigenvalues    EBANDS =      -115.17663527
  atomic energy  EATOM  =       659.61517142
  Solvation  Ediel_sol  =         0.00000000
  ---------------------------------------------------
  free energy    TOTEN  =        -0.06609852 eV

  energy without entropy =       -0.01309737  energy(sigma->0) =       -0.03959794


--------------------------------------------------------------------------------------------------------




--------------------------------------- Iteration      1(  13)  ---------------------------------------


    POTLOK:  cpu time      0.1204: real time      0.1214
    SETDIJ:  cpu time      0.0445: real time      0.0448
     EDDAV:  cpu time      0.0185: real time      0.0187
       DOS:  cpu time      0.0004: real time      0.0004
    CHARGE:  cpu time      0.0108: real time      0.0110
    MIXING:  cpu time      0.0024: real time      0.0024
    --------------------------------------------
      LOOP:  cpu time      0.1970: real time      0.1987

 eigenvalue-minimisations  :    16
 total energy-change (2. order) :-0.2786374E-04  (-0.5823606E-07)
 number of electron       6.9999993 magnetization 
 augmentation part        1.1904703 magnetization 

 Broyden mixing:
  rms(total) = 0.43326E-03    rms(broyden)= 0.41083E-03
  rms(prec ) = 0.42854E-03
  weight for this iteration     100.00

 eigenvalues of (default mixing * dielectric matrix)
  average eigenvalue GAMMA=   0.7647
  2.5169  1.2284  0.8893  0.8893  0.1477  0.1405  0.1309  0.1750

 Free energy of the ion-electron system (eV)
  ---------------------------------------------------
  alpha Z        PSCENC =         0.05101412
  Ewald energy   TEWEN  =       -66.28833240
  -Hartree energ DENC   =      -509.22845191
  -exchange      EXHF   =         0.00000000
  -V(xc)+E(xc)   XCENC  =        36.14137057
  PAW double counting   =       539.35194348     -544.48262432
  entropy T*S    EENTRO =        -0.05300138
  eigenvalues    EBANDS =      -115.17321597
  atomic energy  EATOM  =       659.61517142
  Solvation  Ediel_sol  =         0.00000000
  ---------------------------------------------------
  free energy    TOTEN  =        -0.06612638 eV

  energy without entropy =       -0.01312501  energy(sigma->0) =       -0.03962569


--------------------------------------------------------------------------------------------------------




--------------------------------------- Iteration      1(  14)  ---------------------------------------


    POTLOK:  cpu time      0.1398: real time      0.1411
    SETDIJ:  cpu time      0.0446: real time      0.0447
     EDDAV:  cpu time      0.0314: real time      0.0317
       DOS:  cpu time      0.0004: real time      0.0004
    CHARGE:  cpu time      0.0114: real time      0.0115
    MIXING:  cpu time      0.0024: real time      0.0024
    --------------------------------------------
      LOOP:  cpu time      0.2300: real time      0.2318

 eigenvalue-minimisations  :    32
 total energy-change (2. order) :-0.1248775E-04  (-0.1475549E-07)
 number of electron       6.9999993 magnetization 
 augmentation part        1.1904676 magnetization 

 Broyden mixing:
  rms(total) = 0.42565E-03    rms(broyden)= 0.42467E-03
  rms(prec ) = 0.44275E-03
  weight for this iteration     100.00

 eigenvalues of (default mixing * dielectric matrix)
  average eigenvalue GAMMA=   0.8768
  2.5374  1.7617  1.0254  1.0254  0.9768  0.1474  0.1355  0.1409  0.1409

 Free energy of the ion-electron system (eV)
  ---------------------------------------------------
  alpha Z        PSCENC =         0.05101412
  Ewald energy   TEWEN  =       -66.28833240
  -Hartree energ DENC   =      -509.22858637
  -exchange      EXHF   =         0.00000000
  -V(xc)+E(xc)   XCENC  =        36.14136587
  PAW double counting   =       539.35251963     -544.48320754
  entropy T*S    EENTRO =        -0.05300138
  eigenvalues    EBANDS =      -115.17308221
  atomic energy  EATOM  =       659.61517142
  Solvation  Ediel_sol  =         0.00000000
  ---------------------------------------------------
  free energy    TOTEN  =        -0.06613887 eV

  energy without entropy =       -0.01313750  energy(sigma->0) =       -0.03963818


--------------------------------------------------------------------------------------------------------




--------------------------------------- Iteration      1(  15)  ---------------------------------------


    POTLOK:  cpu time      0.1223: real time      0.1235
    SETDIJ:  cpu time      0.0445: real time      0.0447
     EDDAV:  cpu time      0.0190: real time      0.0192
       DOS:  cpu time      0.0003: real time      0.0003
    --------------------------------------------
      LOOP:  cpu time      0.1862: real time      0.1877

 eigenvalue-minimisations  :    16
 total energy-change (2. order) :-0.2054190E-05  (-0.7265014E-08)
 number of electron       6.9999993 magnetization 
 augmentation part        1.1904676 magnetization 

 Free energy of the ion-electron system (eV)
  ---------------------------------------------------
  alpha Z        PSCENC =         0.05101412
  Ewald energy   TEWEN  =       -66.28833240
  -Hartree energ DENC   =      -509.22976449
  -exchange      EXHF   =         0.00000000
  -V(xc)+E(xc)   XCENC  =        36.14141906
  PAW double counting   =       539.35649768     -544.48724520
  entropy T*S    EENTRO =        -0.05300139
  eigenvalues    EBANDS =      -115.17189973
  atomic energy  EATOM  =       659.61517142
  Solvation  Ediel_sol  =         0.00000000
  ---------------------------------------------------
  free energy    TOTEN  =        -0.06614092 eV

  energy without entropy =       -0.01313954  energy(sigma->0) =       -0.03964023


--------------------------------------------------------------------------------------------------------




 average (electrostatic) potential at core
  the test charge radii are     0.7167
  (the norm of the test charge is              1.0000)
       1 -87.5909
 
 
 
 E-fermi : -11.0505     XC(G=0):  -0.1235     alpha+bet : -0.0187

 Fermi energy:       -11.0504780175

 k-point     1 :       0.0000    0.0000    0.0000
  band No.  band energies     occupation 
      1     -29.8742      2.00000
      2     -11.0847      1.66673
      3     -11.0847      1.66668
      4     -11.0847      1.66659
      5      -0.2067      0.00000
      6       0.2832      0.00000
      7       0.5814      0.00000
      8       0.5891      0.00000


--------------------------------------------------------------------------------------------------------


 soft charge-density along one line, spin component           1
         0         1         2         3         4         5         6         7         8         9
 total charge-density along one line
 
 pseudopotential strength for first ion, spin component:           1
  9.795 -11.215  -0.000  -0.000  -0.000   0.000   0.000   0.000
-11.215  12.866   0.000   0.000   0.000  -0.000  -0.000  -0.000
 -0.000   0.000 -14.937  -0.000  -0.000  17.205   0.000   0.000
 -0.000   0.000  -0.000 -14.937  -0.000   0.000  17.205   0.000
 -0.000   0.000  -0.000  -0.000 -14.937   0.000   0.000  17.205
  0.000  -0.000  17.205   0.000   0.000 -19.823  -0.000  -0.000
  0.000  -0.000   0.000  17.205   0.000  -0.000 -19.823  -0.000
  0.000  -0.000   0.000   0.000  17.205  -0.000  -0.000 -19.823
 total augmentation occupancy for first ion, spin component:           1
  2.034   0.014  -0.000   0.000  -0.000  -0.000   0.000  -0.000
  0.014   0.000  -0.000   0.000  -0.000  -0.000   0.000  -0.000
 -0.000  -0.000   1.655   0.000   0.000  -0.005  -0.000  -0.000
  0.000   0.000   0.000   1.654   0.000  -0.000  -0.005   0.000
 -0.000  -0.000   0.000   0.000   1.654  -0.000   0.000  -0.005
 -0.000  -0.000  -0.005  -0.000  -0.000   0.000   0.000   0.000
  0.000   0.000  -0.000  -0.005   0.000   0.000   0.000  -0.000
 -0.000  -0.000  -0.000   0.000  -0.005   0.000  -0.000   0.000


------------------------ aborting loop because EDIFF is reached ----------------------------------------


    CHARGE:  cpu time      0.0123: real time      0.0124
    FORLOC:  cpu time      0.0020: real time      0.0020
    FORNL :  cpu time      0.0005: real time      0.0005
    STRESS:  cpu time      0.0067: real time      0.0067
    FORCOR:  cpu time      0.1326: real time      0.1337
    FORHAR:  cpu time      0.0309: real time      0.0312
    MIXING:  cpu time      0.0024: real time      0.0025
    OFIELD:  cpu time      0.0000: real time      0.0000

  FORCE on cell =-STRESS in cart. coord.  units (eV):
  Direction    XX          YY          ZZ          XY          YZ          ZX
  --------------------------------------------------------------------------------------
  Alpha Z     0.05101     0.05101     0.05101
  Ewald     -21.65015   -22.09650   -22.54168     0.00000     0.00000     0.00000
  Hartree   170.18719   169.74276   169.30291     0.00005     0.00065     0.00047
  E(xc)     -38.65035   -38.65037   -38.65035    -0.00000    -0.00000     0.00000
  Local    -249.30144  -248.40759  -247.52551    -0.00014    -0.00177    -0.00129
  n-local   -37.30769   -37.30701   -37.30745    -0.00002    -0.00030    -0.00022
  augment    17.19820    17.19804    17.19851     0.00002     0.00018     0.00013
  Kinetic   159.42815   159.42524   159.42800     0.00007     0.00096     0.00071
  Fock        0.00000     0.00000     0.00000     0.00000     0.00000     0.00000
  -------------------------------------------------------------------------------------
  Total      -0.04508    -0.04441    -0.04455    -0.00002    -0.00027    -0.00020
  in kB      -0.02098    -0.02067    -0.02073    -0.00001    -0.00013    -0.00009
  external pressure =       -0.02 kB  Pullay stress =        0.00 kB


 VOLUME and BASIS-vectors are now :
 -----------------------------------------------------------------------------
  energy-cutoff  :      520.00
  volume of cell :     3442.80
      direct lattice vectors                 reciprocal lattice vectors
    15.000000000  0.000000000  0.000000000     0.066666667 -0.000000000  0.000000000
     0.000000000 15.100000000  0.000000000     0.000000000  0.066225166  0.000000000
     0.000000000  0.000000000 15.200000000    -0.000000000 -0.000000000  0.065789474

  length of vectors
    15.000000000 15.100000000 15.200000000     0.066666667  0.066225166  0.065789474


 FORCES acting on ions
    electron-ion (+dipol)            ewald-force                    non-local-force                 convergence-correction
 -----------------------------------------------------------------------------------------------
   0.429E-04 0.563E-04 0.234E-04   0.933E-17 0.909E-17 -.291E-17   0.749E-05 0.631E-05 0.149E-04   -.617E-04 -.103E-03 -.431E-04
 -----------------------------------------------------------------------------------------------
   0.429E-04 0.563E-04 0.234E-04   0.933E-17 0.909E-17 -.291E-17   0.749E-05 0.631E-05 0.149E-04   -.617E-04 -.103E-03 -.431E-04
 
 
 POSITION                                       TOTAL-FORCE (eV/Angst)
 -----------------------------------------------------------------------------------
      0.00000      0.00000      0.00000        -0.000011     -0.000040     -0.000005
 -----------------------------------------------------------------------------------
    total drift:                               -0.000011     -0.000040     -0.000005


--------------------------------------------------------------------------------------------------------



  FREE ENERGIE OF THE ION-ELECTRON SYSTEM (eV)
  ---------------------------------------------------
  free  energy   TOTEN  =        -0.06614092 eV

  energy  without entropy=       -0.01313954  energy(sigma->0) =       -0.03964023
 


--------------------------------------------------------------------------------------------------------


    POTLOK:  cpu time      0.1666: real time      0.1678


--------------------------------------------------------------------------------------------------------


     LOOP+:  cpu time      2.7749: real time      2.8004
    4ORBIT:  cpu time      0.0000: real time      0.0000

 total amount of memory used by VASP MPI-rank0    50902. kBytes
=======================================================================

   base      :      30000. kBytes
   nonl-proj :        116. kBytes
   fftplans  :       8156. kBytes
   grid      :      12536. kBytes
   one-center:          1. kBytes
   wavefun   :         93. kBytes
 
  
  
 General timing and accounting informations for this job:
 ========================================================
  
                  Total CPU time used (sec):        4.259
                            User time (sec):        3.482
                          System time (sec):        0.777
                         Elapsed time (sec):        4.850
  
                   Maximum memory used (kb):      428560.
                   Average memory used (kb):          N/A
  
                          Minor page faults:        55761
                          Major page faults:           25
                 Voluntary context switches:         1142
