 vasp.6.4.2 20Jul23 (build Aug 07 2024 12:45:50) gamma-only                     
  
 executed on             LinuxIFC date 2026.09.30  12:26:45
 running   64 mpi-ranks, on    1 nodes
 distrk:  each k-point on   64 cores,    1 groups
 distr:  one band on NCORE=  32 cores,    2 groups


--------------------------------------------------------------------------------------------------------


 INCAR:
   ALGO = Normal
   EDIFF = 1e-05
   EFERMI = Midgap
   ENCUT = 520.0
   GGA = Pe
   GGA_COMPAT = False
   IBRION = -1
   ISMEAR = 0
   ISPIN = 1
   ISYM = 0
   LAECHG = False
   LASPH = True
   LCHARG = False
   LMAXMIX = 6
   LMIXTAU = True
   LREAL = False
   LWAVE = False
   NCORE = 32
   NELM = 400
   NSW = 0
   PREC = Accurate
   SIGMA = 0.05
   SYSTEM = Al_atom_ispin1

 POTCAR:    PAW_PBE Al 04Jan2001                  
 -----------------------------------------------------------------------------
|                                                                             |
|           W    W    AA    RRRRR   N    N  II  N    N   GGGG   !!!           |
|           W    W   A  A   R    R  NN   N  II  NN   N  G    G  !!!           |
|           W    W  A    A  R    R  N N  N  II  N N  N  G       !!!           |
|           W WW W  AAAAAA  RRRRR   N  N N  II  N  N N  G  GGG   !            |
|           WW  WW  A    A  R   R   N   NN  II  N   NN  G    G                |
|           W    W  A    A  R    R  N    N  II  N    N   GGGG   !!!           |
|                                                                             |
|     For optimal performance we recommend to set                             |
|       NCORE = 2 up to number-of-cores-per-socket                            |
|     NCORE specifies how many cores store one orbital (NPAR=cpu/NCORE).      |
|     This setting can greatly improve the performance of VASP for DFT.       |
|     The default, NCORE=1 might be grossly inefficient on modern             |
|     multi-core architectures or massively parallel machines. Do your        |
|     own testing! More info at https://www.vasp.at/wiki/index.php/NCORE      |
|     Unfortunately you need to use the default for GW and RPA                |
|     calculations (for HF NCORE is supported but not extensively tested      |
|     yet).                                                                   |
|                                                                             |
 -----------------------------------------------------------------------------

 POTCAR:    PAW_PBE Al 04Jan2001                  
   SHA256 =  17880443556af62b473fe41b62a467bd001ad55d2cabe504a3f22e34d4e9db96 Al/POTCAR             
   COPYR  = (c) Copyright 04Jan2001 Georg Kresse                                                    
   COPYR  = This file is part of the software VASP. Any use, copying, and all other rights are regul
   COPYR  = If you do not have a valid VASP license, you may not use, copy or distribute this file. 
   VRHFIN =Al: s2p1                                                                                 
   LEXCH  = PE                                                                                      
   EATOM  =    53.5387 eV,    3.9350 Ry                                                             
                                                                                                    
   TITEL  = PAW_PBE Al 04Jan2001                                                                    
   LULTRA =        F    use ultrasoft PP ?                                                          
   IUNSCR =        1    unscreen: 0-lin 1-nonlin 2-no                                               
   RPACOR =    1.500    partial core radius                                                         
   POMASS =   26.981; ZVAL   =    3.000    mass and valenz                                          
   RCORE  =    1.900    outmost cutoff radius                                                       
   RWIGS  =    2.650; RWIGS  =    1.402    wigner-seitz radius (au A)                               
   ENMAX  =  240.300; ENMIN  =  180.225 eV                                                          
   ICORE  =        2    local potential                                                             
   LCOR   =        T    correct aug charges                                                         
   LPAW   =        T    paw PP                                                                      
   EAUG   =  291.052                                                                                
   DEXC   =    0.000                                                                                
   RMAX   =    1.939    core radius for proj-oper                                                   
   RAUG   =    1.300    factor for augmentation sphere                                              
   RDEP   =    1.966    radius for radial grids                                                     
   RDEPT  =    1.856    core radius for aug-charge                                                  
                                                                                                    
   Atomic configuration                                                                             
    6 entries                                                                                       
     n  l   j            E        occ.                                                              
     1  0  0.50     -1511.1048   2.0000                                                             
     2  0  0.50      -108.1629   2.0000                                                             
     2  1  1.50       -69.6402   6.0000                                                             
     3  0  0.50        -7.7528   2.0000                                                             
     3  1  1.50        -2.7121   1.0000                                                             
     3  2  2.50        -2.7212   0.0000                                                             
   Description                                                                                      
     l       E           TYP  RCUT    TYP  RCUT                                                     
     0     -7.7528455     23  1.900                                                                 
     0     -3.3096929     23  1.900                                                                 
     1     -2.7120682     23  1.900                                                                 
     1     13.6058260     23  1.900                                                                 
     2     -2.7211652      7  1.900                                                                 
  local pseudopotential read in
  partial core-charges read in
  partial kinetic energy density read in
  atomic valenz-charges read in
  non local Contribution for L=           0  read in
    real space projection operators read in
  non local Contribution for L=           0  read in
    real space projection operators read in
  non local Contribution for L=           1  read in
    real space projection operators read in
  non local Contribution for L=           1  read in
    real space projection operators read in
    PAW grid and wavefunctions read in
 
   number of l-projection  operators is LMAX  =           4
   number of lm-projection operators is LMMAX =           8
 
  PAW_PBE Al 04Jan2001                  :
 energy of atom  1       EATOM=  -53.5387
 kinetic energy error for atom=    0.0002 (will be added to EATOM!!)
 
 
 POSCAR: Al1
  positions in direct lattice
  No initial velocities read in
 exchange correlation table for  LEXCH =        8
   RHO(1)=    0.500       N(1)  =     2000
   RHO(2)=  100.500       N(2)  =     4000
 


--------------------------------------------------------------------------------------------------------


 ion  position               nearest neighbor table
   1  0.000  0.000  0.000-
 

IMPORTANT INFORMATION: All symmetrisations will be switched off!
NOSYMM: (Re-)initialisation of all symmetry stuff for point group C_1.


----------------------------------------------------------------------------------------

                                     Primitive cell                                     

  volume of cell :    5929.5600

  direct lattice vectors                    reciprocal lattice vectors
    18.000000000  0.000000000  0.000000000     0.055555556 -0.000000000  0.000000000
     0.000000000 18.100000000  0.000000000     0.000000000  0.055248619  0.000000000
     0.000000000  0.000000000 18.200000000    -0.000000000 -0.000000000  0.054945055

  length of vectors
    18.000000000 18.100000000 18.200000000     0.055555556  0.055248619  0.054945055

  position of ions in fractional coordinates (direct lattice)
     0.000000000  0.000000000  0.000000000

  ion indices of the primitive-cell ions
   primitive index   ion index
                 1           1

----------------------------------------------------------------------------------------

 
 
 KPOINTS: Automatic kpoint scheme                 

Automatic generation of k-mesh.
 Grid dimensions read from file:
 generate k-points for:    1    1    1

 Generating k-lattice:

  Cartesian coordinates                     Fractional coordinates (reciprocal lattice)
     0.055555556 -0.000000000  0.000000000     1.000000000 -0.000000000  0.000000000
     0.000000000  0.055248619  0.000000000     0.000000000  1.000000000  0.000000000
    -0.000000000 -0.000000000  0.054945055    -0.000000000 -0.000000000  1.000000000

  Length of vectors
     0.055555556  0.055248619  0.054945055

  Shift w.r.t. Gamma in fractional coordinates (k-lattice)
     0.000000000  0.000000000  0.000000000

 
 Subroutine IBZKPT returns following result:
 ===========================================
 
 Found      1 irreducible k-points:
 
 Following reciprocal coordinates:
            Coordinates               Weight
  0.000000  0.000000  0.000000      1.000000
 
 Following cartesian coordinates:
            Coordinates               Weight
  0.000000  0.000000  0.000000      1.000000
 


--------------------------------------------------------------------------------------------------------




 Dimension of arrays:
   k-points           NKPTS =      1   k-points in BZ     NKDIM =      1   number of bands    NBANDS=      6
   number of dos      NEDOS =    301   number of ions     NIONS =      1
   non local maximal  LDIM  =      4   non local SUM 2l+1 LMDIM =      8
   total plane-waves  NPLWV = ******
   max r-space proj   IRMAX =      1   max aug-charges    IRDMAX=  18208
   dimension x,y,z NGX =   140 NGY =  140 NGZ =  140
   dimension x,y,z NGXF=   280 NGYF=  280 NGZF=  280
   support grid    NGXF=   280 NGYF=  280 NGZF=  280
   ions per type =               1
   NGX,Y,Z   is equivalent  to a cutoff of  12.93, 12.86, 12.79 a.u.
   NGXF,Y,Z  is equivalent  to a cutoff of  25.86, 25.72, 25.58 a.u.

 SYSTEM =  Al_atom_ispin1                          
 POSCAR =  Al1                                     

 Startparameter for this run:
   NWRITE =      2    write-flag & timer
   PREC   = accura    normal or accurate (medium, high low for compatibility)
   ISTART =      0    job   : 0-new  1-cont  2-samecut
   ICHARG =      2    charge: 1-file 2-atom 10-const
   ISPIN  =      1    spin polarized calculation?
   LNONCOLLINEAR =      F non collinear calculations
   LSORBIT =      F    spin-orbit coupling
   INIWAV =      1    electr: 0-lowe 1-rand  2-diag
   LASPH  =      T    aspherical Exc in radial PAW
 Electronic Relaxation 1
   ENCUT  =  520.0 eV  38.22 Ry    6.18 a.u.  33.47 33.65 33.84*2*pi/ulx,y,z
   ENINI  =  520.0     initial cutoff
   ENAUG  =  291.1 eV  augmentation charge cutoff
   NELM   =    400;   NELMIN=  2; NELMDL= -5     # of ELM steps 
   EDIFF  = 0.1E-04   stopping-criterion for ELM
   LREAL  =      F    real-space projection
   NLSPLINE    = F    spline interpolate recip. space projectors
   LCOMPAT=      F    compatible to vasp.4.4
   GGA_COMPAT  = F    GGA compatible to vasp.4.4-vasp.4.6
   LMAXPAW     = -100 max onsite density
   LMAXMIX     =    6 max onsite mixed and CHGCAR
   VOSKOWN=      0    Vosko Wilk Nusair interpolation
   ROPT   =    0.00000
 Ionic relaxation
   EDIFFG = 0.1E-03   stopping-criterion for IOM
   NSW    =      0    number of steps for IOM
   NBLOCK =      1;   KBLOCK =      1    inner block; outer block 
   IBRION =     -1    ionic relax: 0-MD 1-quasi-New 2-CG
   NFREE  =      0    steps in history (QN), initial steepest desc. (CG)
   ISIF   =      2    stress and relaxation
   IWAVPR =     10    prediction:  0-non 1-charg 2-wave 3-comb
   ISYM   =      0    0-nonsym 1-usesym 2-fastsym
   LCORR  =      T    Harris-Foulkes like correction to forces

   POTIM  = 0.5000    time-step for ionic-motion
   TEIN   =    0.0    initial temperature
   TEBEG  =    0.0;   TEEND  =   0.0 temperature during run
   SMASS  =  -3.00    Nose mass-parameter (am)
   estimated Nose-frequenzy (Omega)   =  0.10E-29 period in steps = 0.13E+47 mass=  -0.740E-26a.u.
   SCALEE = 1.0000    scale energy and forces
   NPACO  =    256;   APACO  = 10.0  distance and # of slots for P.C.
   PSTRESS=    0.0 pullay stress

  Mass of Ions in am
   POMASS =  26.98
  Ionic Valenz
   ZVAL   =   3.00
  Atomic Wigner-Seitz radii
   RWIGS  =  -1.00
  virtual crystal weights 
   VCA    =   1.00
   NELECT =       3.0000    total number of electrons
   NUPDOWN=      -1.0000    fix difference up-down

 DOS related values:
   EMIN   =  10.00;   EMAX   =-10.00  energy-range for DOS
   EFERMI =   0.00;   METHOD = MIDGAP      
   ISMEAR =     0;   SIGMA  =   0.05  broadening in eV -4-tet -1-fermi 0-gaus

 Electronic relaxation 2 (details)
   IALGO  =     38    algorithm
   LDIAG  =      T    sub-space diagonalisation (order eigenvalues)
   LSUBROT=      F    optimize rotation matrix (better conditioning)
   TURBO    =      0    0=normal 1=particle mesh
   IRESTART =      0    0=no restart 2=restart with 2 vectors
   NREBOOT  =      0    no. of reboots
   NMIN     =      0    reboot dimension
   EREF     =   0.00    reference energy to select bands
   IMIX   =      4    mixing-type and parameters
     AMIX     =   0.40;   BMIX     =  1.00
     AMIX_MAG =   1.60;   BMIX_MAG =  1.00
     AMIN     =   0.10
     WC   =   100.;   INIMIX=   1;  MIXPRE=   1;  MAXMIX= -45

 Intra band minimization:
   WEIMIN = 0.0000     energy-eigenvalue tresh-hold
   EBREAK =  0.42E-06  absolut break condition
   DEPER  =   0.30     relativ break condition  

   TIME   =   0.40     timestep for ELM

  volume/ion in A,a.u.               =    5929.56     40014.65
  Fermi-wavevector in a.u.,A,eV,Ry     =   0.130449  0.246513  0.231530  0.017017
  Thomas-Fermi vector in A             =   0.770148
 
 Write flags
   LWAVE        =      F    write WAVECAR
   LDOWNSAMPLE  =      F    k-point downsampling of WAVECAR
   LCHARG       =      F    write CHGCAR
   LVTOT        =      F    write LOCPOT, total local potential
   LVHAR        =      F    write LOCPOT, Hartree potential only
   LELF         =      F    write electronic localiz. function (ELF)
   LORBIT       =      0    0 simple, 1 ext, 2 COOP (PROOUT), +10 PAW based schemes


 Dipole corrections
   LMONO  =      F    monopole corrections only (constant potential shift)
   LDIPOL =      F    correct potential (dipole corrections)
   IDIPOL =      0    1-x, 2-y, 3-z, 4-all directions 
   EPSILON=  1.0000000 bulk dielectric constant

 Exchange correlation treatment:
   GGA     =    PE    GGA type
   LEXCH   =     8    internal setting for exchange type
   LIBXC   =     F    Libxc                    
   VOSKOWN =     0    Vosko Wilk Nusair interpolation
   LHFCALC =     F    Hartree Fock is set to
   LHFONE  =     F    Hartree Fock one center treatment
   AEXX    =    0.0000 exact exchange contribution

 Linear response parameters
   LEPSILON=     F    determine dielectric tensor
   LRPA    =     F    only Hartree local field effects (RPA)
   LNABLA  =     F    use nabla operator in PAW spheres
   LVEL    =     F    velocity operator in full k-point grid
   CSHIFT  =0.1000    complex shift for real part using Kramers Kronig
   OMEGAMAX=  -1.0    maximum frequency
   DEG_THRESHOLD= 0.2000000E-02 threshold for treating states as degnerate
   RTIME   =   -0.100 relaxation time in fs
  (WPLASMAI=    0.000 imaginary part of plasma frequency in eV, 0.658/RTIME)
   DFIELD  = 0.0000000 0.0000000 0.0000000 field for delta impulse in time
 
  Optional k-point grid parameters
   LKPOINTS_OPT  =     F    use optional k-point grid
   KPOINTS_OPT_MODE=     1    mode for optional k-point grid
 
 Orbital magnetization related:
   ORBITALMAG=     F  switch on orbital magnetization
   LCHIMAG   =     F  perturbation theory with respect to B field
   DQ        =  0.001000  dq finite difference perturbation B field
   LLRAUG    =     F  two centre corrections for induced B field
   LBONE     =     F  B-component reconstruction in AE one-centre
   LVGVCALC  =     T  calculate vGv susceptibility
   LVGVAPPL  =     F  apply vGv susceptibility instead of pGv for G=0

 Random number generation:
   RANDOM_GENERATOR = DEFAULT
   PCG_SEED         = not used


--------------------------------------------------------------------------------------------------------


 Static calculation
 charge density and potential will be updated during run
 non-spin polarized calculation
 Variant of blocked Davidson
 Davidson routine will perform the subspace rotation
 perform sub-space diagonalisation
    after iterative eigenvector-optimisation
 modified Broyden-mixing scheme, WC =      100.0
 initial mixing is a Kerker type mixing with AMIX =  0.4000 and BMIX =      1.0000
 Hartree-type preconditioning will be used
 using additional bands            4
 reciprocal scheme for non local part
 use partial core corrections
 calculate Harris-corrections to forces 
   (improved forces if not selfconsistent)
 use gradient corrections 
 use of overlap-Matrix (Vanderbilt PP)
 Gauss-broadening in eV      SIGMA  =   0.05


--------------------------------------------------------------------------------------------------------


  energy-cutoff  :      520.00
  volume of cell :     5929.56
      direct lattice vectors                 reciprocal lattice vectors
    18.000000000  0.000000000  0.000000000     0.055555556 -0.000000000  0.000000000
     0.000000000 18.100000000  0.000000000     0.000000000  0.055248619  0.000000000
     0.000000000  0.000000000 18.200000000    -0.000000000 -0.000000000  0.054945055

  length of vectors
    18.000000000 18.100000000 18.200000000     0.055555556  0.055248619  0.054945055


 
 k-points in units of 2pi/SCALE and weight: Automatic kpoint scheme                 
   0.00000000  0.00000000  0.00000000       1.000
 
 k-points in reciprocal lattice and weights: Automatic kpoint scheme                 
   0.00000000  0.00000000  0.00000000       1.000
 
 position of ions in fractional coordinates (direct lattice) 
   0.00000000  0.00000000  0.00000000
 
 position of ions in cartesian coordinates  (Angst):
   0.00000000  0.00000000  0.00000000
 


--------------------------------------------------------------------------------------------------------


 use parallel FFT for orbitals z direction half grid
 k-point   1 :   0.0000 0.0000 0.0000  plane waves:   79868

 maximum and minimum number of plane-waves per node :      2508     2479

 maximum number of plane-waves:     79868
 maximum index in each direction: 
   IXMAX=   33   IYMAX=   33   IZMAX=   33
   IXMIN=  -33   IYMIN=  -33   IZMIN=    0


 parallel 3D FFT for wavefunctions:
    minimum data exchange during FFTs selected (reduces bandwidth)
 parallel 3D FFT for charge:
    minimum data exchange during FFTs selected (reduces bandwidth)


 total amount of memory used by VASP MPI-rank0    68091. kBytes
=======================================================================

   base      :      30000. kBytes
   nonl-proj :        198. kBytes
   fftplans  :      14937. kBytes
   grid      :      22836. kBytes
   one-center:          1. kBytes
   wavefun   :        119. kBytes
 
     INWAV:  cpu time      0.0000: real time      0.0000
 Broyden mixing: mesh for mixing (old mesh)
   NGX = 67   NGY = 67   NGZ = 67
  (NGX  =280   NGY  =280   NGZ  =280)
  gives a total of 300763 points

 initial charge density was supplied:
 charge density of overlapping atoms calculated
 number of electron       3.0000000 magnetization 
 keeping initial charge density in first step


--------------------------------------------------------------------------------------------------------


 Maximum index for augmentation-charges          801 (set IRDMAX)


--------------------------------------------------------------------------------------------------------


 First call to EWALD:  gamma=   0.098
 Maximum number of real-space cells 3x 3x 3
 Maximum number of reciprocal cells 3x 3x 3

    FEWALD:  cpu time      0.0019: real time      0.0020


--------------------------------------- Ionic step        1  -------------------------------------------




--------------------------------------- Iteration      1(   1)  ---------------------------------------


    POTLOK:  cpu time      0.2393: real time      0.2412
    SETDIJ:  cpu time      0.0432: real time      0.0435
     EDDAV:  cpu time      0.0351: real time      0.0354
       DOS:  cpu time      0.0004: real time      0.0004
    --------------------------------------------
      LOOP:  cpu time      0.3180: real time      0.3205

 eigenvalue-minimisations  :    12
 total energy-change (2. order) : 0.3227784E+01  (-0.2407950E+02)
 number of electron       3.0000000 magnetization 
 augmentation part        3.0000000 magnetization 

 Free energy of the ion-electron system (eV)
  ---------------------------------------------------
  alpha Z        PSCENC =        -0.00056645
  Ewald energy   TEWEN  =       -10.15747695
  -Hartree energ DENC   =       -29.17591850
  -exchange      EXHF   =         0.00000000
  -V(xc)+E(xc)   XCENC  =       -28.07263652
  PAW double counting   =        66.20015713      -34.24562076
  entropy T*S    EENTRO =        -0.02820948
  eigenvalues    EBANDS =       -14.83040132
  atomic energy  EATOM  =        53.53845706
  Solvation  Ediel_sol  =         0.00000000
  ---------------------------------------------------
  free energy    TOTEN  =         3.22778422 eV

  energy without entropy =        3.25599370  energy(sigma->0) =        3.24188896


--------------------------------------------------------------------------------------------------------




--------------------------------------- Iteration      1(   2)  ---------------------------------------


     EDDAV:  cpu time      0.0527: real time      0.0538
       DOS:  cpu time      0.0004: real time      0.0004
    --------------------------------------------
      LOOP:  cpu time      0.0531: real time      0.0542

 eigenvalue-minimisations  :    24
 total energy-change (2. order) :-0.2383779E+01  (-0.2383632E+01)
 number of electron       3.0000000 magnetization 
 augmentation part        3.0000000 magnetization 

 Free energy of the ion-electron system (eV)
  ---------------------------------------------------
  alpha Z        PSCENC =        -0.00056645
  Ewald energy   TEWEN  =       -10.15747695
  -Hartree energ DENC   =       -29.17591850
  -exchange      EXHF   =         0.00000000
  -V(xc)+E(xc)   XCENC  =       -28.07263652
  PAW double counting   =        66.20015713      -34.24562076
  entropy T*S    EENTRO =        -0.02946192
  eigenvalues    EBANDS =       -17.21292819
  atomic energy  EATOM  =        53.53845706
  Solvation  Ediel_sol  =         0.00000000
  ---------------------------------------------------
  free energy    TOTEN  =         0.84400491 eV

  energy without entropy =        0.87346683  energy(sigma->0) =        0.85873587


--------------------------------------------------------------------------------------------------------




--------------------------------------- Iteration      1(   3)  ---------------------------------------


     EDDAV:  cpu time      0.0314: real time      0.0317
       DOS:  cpu time      0.0003: real time      0.0004
    --------------------------------------------
      LOOP:  cpu time      0.0317: real time      0.0320

 eigenvalue-minimisations  :    12
 total energy-change (2. order) :-0.8372637E+00  (-0.8223692E+00)
 number of electron       3.0000000 magnetization 
 augmentation part        3.0000000 magnetization 

 Free energy of the ion-electron system (eV)
  ---------------------------------------------------
  alpha Z        PSCENC =        -0.00056645
  Ewald energy   TEWEN  =       -10.15747695
  -Hartree energ DENC   =       -29.17591850
  -exchange      EXHF   =         0.00000000
  -V(xc)+E(xc)   XCENC  =       -28.07263652
  PAW double counting   =        66.20015713      -34.24562076
  entropy T*S    EENTRO =        -0.05156601
  eigenvalues    EBANDS =       -18.02808782
  atomic energy  EATOM  =        53.53845706
  Solvation  Ediel_sol  =         0.00000000
  ---------------------------------------------------
  free energy    TOTEN  =         0.00674118 eV

  energy without entropy =        0.05830719  energy(sigma->0) =        0.03252419


--------------------------------------------------------------------------------------------------------




--------------------------------------- Iteration      1(   4)  ---------------------------------------


     EDDAV:  cpu time      0.0312: real time      0.0315
       DOS:  cpu time      0.0003: real time      0.0003
    --------------------------------------------
      LOOP:  cpu time      0.0315: real time      0.0318

 eigenvalue-minimisations  :    12
 total energy-change (2. order) :-0.6341086E-01  (-0.6204295E-01)
 number of electron       3.0000000 magnetization 
 augmentation part        3.0000000 magnetization 

 Free energy of the ion-electron system (eV)
  ---------------------------------------------------
  alpha Z        PSCENC =        -0.00056645
  Ewald energy   TEWEN  =       -10.15747695
  -Hartree energ DENC   =       -29.17591850
  -exchange      EXHF   =         0.00000000
  -V(xc)+E(xc)   XCENC  =       -28.07263652
  PAW double counting   =        66.20015713      -34.24562076
  entropy T*S    EENTRO =        -0.05300021
  eigenvalues    EBANDS =       -18.09006449
  atomic energy  EATOM  =        53.53845706
  Solvation  Ediel_sol  =         0.00000000
  ---------------------------------------------------
  free energy    TOTEN  =        -0.05666968 eV

  energy without entropy =       -0.00366947  energy(sigma->0) =       -0.03016958


--------------------------------------------------------------------------------------------------------




--------------------------------------- Iteration      1(   5)  ---------------------------------------


     EDDAV:  cpu time      0.0526: real time      0.0528
       DOS:  cpu time      0.0003: real time      0.0004
    CHARGE:  cpu time      0.0227: real time      0.0229
    MIXING:  cpu time      0.0052: real time      0.0053
    --------------------------------------------
      LOOP:  cpu time      0.0809: real time      0.0814

 eigenvalue-minimisations  :    24
 total energy-change (2. order) :-0.1147972E-02  (-0.1146801E-02)
 number of electron       3.0000000 magnetization 
 augmentation part       -0.0671365 magnetization 

 Broyden mixing:
  rms(total) = 0.27099E-02    rms(broyden)= 0.26978E-02
  rms(prec ) = 0.26992E-02
  weight for this iteration     100.00

 Free energy of the ion-electron system (eV)
  ---------------------------------------------------
  alpha Z        PSCENC =        -0.00056645
  Ewald energy   TEWEN  =       -10.15747695
  -Hartree energ DENC   =       -29.17591850
  -exchange      EXHF   =         0.00000000
  -V(xc)+E(xc)   XCENC  =       -28.07263652
  PAW double counting   =        66.20015713      -34.24562076
  entropy T*S    EENTRO =        -0.05300139
  eigenvalues    EBANDS =       -18.09121128
  atomic energy  EATOM  =        53.53845706
  Solvation  Ediel_sol  =         0.00000000
  ---------------------------------------------------
  free energy    TOTEN  =        -0.05781766 eV

  energy without entropy =       -0.00481627  energy(sigma->0) =       -0.03131696


--------------------------------------------------------------------------------------------------------




--------------------------------------- Iteration      1(   6)  ---------------------------------------


    POTLOK:  cpu time      0.2291: real time      0.2309
    SETDIJ:  cpu time      0.0427: real time      0.0429
     EDDAV:  cpu time      0.0531: real time      0.0535
       DOS:  cpu time      0.0003: real time      0.0003
    --------------------------------------------
      LOOP:  cpu time      0.3251: real time      0.3276

 eigenvalue-minimisations  :    24
 total energy-change (2. order) :-0.7901908E-05  (-0.1265292E-05)
 number of electron       3.0000000 magnetization 
 augmentation part       -0.0671365 magnetization 

 Free energy of the ion-electron system (eV)
  ---------------------------------------------------
  alpha Z        PSCENC =        -0.00056645
  Ewald energy   TEWEN  =       -10.15747695
  -Hartree energ DENC   =       -29.17671471
  -exchange      EXHF   =         0.00000000
  -V(xc)+E(xc)   XCENC  =       -28.07274370
  PAW double counting   =        65.75319768      -33.79868476
  entropy T*S    EENTRO =        -0.05300139
  eigenvalues    EBANDS =       -18.09029234
  atomic energy  EATOM  =        53.53845706
  Solvation  Ediel_sol  =         0.00000000
  ---------------------------------------------------
  free energy    TOTEN  =        -0.05782556 eV

  energy without entropy =       -0.00482417  energy(sigma->0) =       -0.03132486


--------------------------------------------------------------------------------------------------------




 average (electrostatic) potential at core
  the test charge radii are     1.0406
  (the norm of the test charge is              1.0000)
       1 -85.3009
 
 
 
 E-fermi :  -2.7038     XC(G=0):  -0.2516     alpha+bet : -0.0414

 Fermi energy:        -2.7037597811

 k-point     1 :       0.0000    0.0000    0.0000
  band No.  band energies     occupation 
      1      -7.7104      2.00000
      2      -2.6696      0.33335
      3      -2.6696      0.33333
      4      -2.6696      0.33332
      5      -0.3293      0.00000
      6       0.2036      0.00000


--------------------------------------------------------------------------------------------------------


 soft charge-density along one line, spin component           1
         0         1         2         3         4         5         6         7         8         9
 total charge-density along one line
 
 pseudopotential strength for first ion, spin component:           1
  8.870  15.138  -0.000   0.000   0.000  -0.000   0.000  -0.000
 15.138  25.834  -0.000   0.000   0.000  -0.000   0.000  -0.000
 -0.000  -0.000   1.968  -0.000  -0.000   5.761   0.000  -0.000
  0.000   0.000  -0.000   1.968   0.000   0.000   5.761  -0.000
  0.000   0.000  -0.000   0.000   1.968  -0.000  -0.000   5.761
 -0.000  -0.000   5.761   0.000  -0.000  16.730   0.000  -0.000
  0.000   0.000   0.000   5.761  -0.000   0.000  16.730  -0.000
 -0.000  -0.000  -0.000  -0.000   5.761  -0.000  -0.000  16.730
 total augmentation occupancy for first ion, spin component:           1
  1.918   0.024  -0.000   0.001  -0.000  -0.000   0.000   0.000
  0.024   0.000   0.000  -0.000   0.000  -0.000   0.000   0.000
 -0.000   0.000   0.332   0.000  -0.000   0.000  -0.000   0.000
  0.001  -0.000   0.000   0.332  -0.000  -0.000   0.000   0.000
 -0.000   0.000  -0.000  -0.000   0.333   0.000   0.000   0.000
 -0.000  -0.000   0.000  -0.000   0.000   0.000  -0.000   0.000
  0.000   0.000  -0.000   0.000   0.000  -0.000   0.000   0.000
  0.000   0.000   0.000   0.000   0.000   0.000   0.000   0.000


------------------------ aborting loop because EDIFF is reached ----------------------------------------


    CHARGE:  cpu time      0.0212: real time      0.0214
    FORLOC:  cpu time      0.0034: real time      0.0034
    FORNL :  cpu time      0.0008: real time      0.0008
    STRESS:  cpu time      0.0124: real time      0.0125
    FORCOR:  cpu time      0.2335: real time      0.2353
    FORHAR:  cpu time      0.0543: real time      0.0549
    MIXING:  cpu time      0.0053: real time      0.0054
    OFIELD:  cpu time      0.0000: real time      0.0000

  FORCE on cell =-STRESS in cart. coord.  units (eV):
  Direction    XX          YY          ZZ          XY          YZ          ZX
  --------------------------------------------------------------------------------------
  Alpha Z    -0.00057    -0.00057    -0.00057
  Ewald      -3.32882    -3.38587    -3.44279     0.00000     0.00000     0.00000
  Hartree     9.78044     9.72557     9.67080     0.00000    -0.00001     0.00001
  E(xc)      -7.03710    -7.03710    -7.03710    -0.00000     0.00000    -0.00000
  Local     -29.85404   -29.74226   -29.63070    -0.00002     0.00005    -0.00003
  n-local    21.31366    21.31371    21.31377     0.00001    -0.00002     0.00001
  augment    -1.78883    -1.78884    -1.78884    -0.00000     0.00000    -0.00000
  Kinetic    10.91489    10.91499    10.91506     0.00001    -0.00002     0.00002
  Fock        0.00000     0.00000     0.00000     0.00000     0.00000     0.00000
  -------------------------------------------------------------------------------------
  Total      -0.00036    -0.00036    -0.00036     0.00000     0.00000     0.00000
  in kB      -0.00010    -0.00010    -0.00010     0.00000     0.00000     0.00000
  external pressure =       -0.00 kB  Pullay stress =        0.00 kB


 VOLUME and BASIS-vectors are now :
 -----------------------------------------------------------------------------
  energy-cutoff  :      520.00
  volume of cell :     5929.56
      direct lattice vectors                 reciprocal lattice vectors
    18.000000000  0.000000000  0.000000000     0.055555556 -0.000000000  0.000000000
     0.000000000 18.100000000  0.000000000     0.000000000  0.055248619  0.000000000
     0.000000000  0.000000000 18.200000000    -0.000000000 -0.000000000  0.054945055

  length of vectors
    18.000000000 18.100000000 18.200000000     0.055555556  0.055248619  0.054945055


 FORCES acting on ions
    electron-ion (+dipol)            ewald-force                    non-local-force                 convergence-correction
 -----------------------------------------------------------------------------------------------
   0.464E-04 -.225E-04 0.233E-03   0.339E-17 0.333E-17 0.121E-17   -.276E-04 0.194E-04 -.148E-03   -.190E-04 0.643E-05 -.909E-04
 -----------------------------------------------------------------------------------------------
   0.464E-04 -.225E-04 0.233E-03   0.339E-17 0.333E-17 0.121E-17   -.276E-04 0.194E-04 -.148E-03   -.190E-04 0.643E-05 -.909E-04
 
 
 POSITION                                       TOTAL-FORCE (eV/Angst)
 -----------------------------------------------------------------------------------
      0.00000      0.00000      0.00000        -0.000000      0.000003     -0.000006
 -----------------------------------------------------------------------------------
    total drift:                               -0.000000      0.000003     -0.000006


--------------------------------------------------------------------------------------------------------



  FREE ENERGIE OF THE ION-ELECTRON SYSTEM (eV)
  ---------------------------------------------------
  free  energy   TOTEN  =        -0.05782556 eV

  energy  without entropy=       -0.00482417  energy(sigma->0) =       -0.03132486
 


--------------------------------------------------------------------------------------------------------


    POTLOK:  cpu time      0.2781: real time      0.2802


--------------------------------------------------------------------------------------------------------


     LOOP+:  cpu time      1.4936: real time      1.5077
    4ORBIT:  cpu time      0.0000: real time      0.0000

 total amount of memory used by VASP MPI-rank0    68091. kBytes
=======================================================================

   base      :      30000. kBytes
   nonl-proj :        198. kBytes
   fftplans  :      14937. kBytes
   grid      :      22836. kBytes
   one-center:          1. kBytes
   wavefun   :        119. kBytes
 
  
  
 General timing and accounting informations for this job:
 ========================================================
  
                  Total CPU time used (sec):        3.856
                            User time (sec):        3.378
                          System time (sec):        0.478
                         Elapsed time (sec):        4.423
  
                   Maximum memory used (kb):      452236.
                   Average memory used (kb):          N/A
  
                          Minor page faults:        36792
                          Major page faults:           24
                 Voluntary context switches:         1149
