 vasp.6.4.2 20Jul23 (build Aug 07 2024 12:45:50) gamma-only                     
  
 executed on             LinuxIFC date 2026.09.30  12:16:43
 running   64 mpi-ranks, on    1 nodes
 distrk:  each k-point on   64 cores,    1 groups
 distr:  one band on NCORE=  32 cores,    2 groups


--------------------------------------------------------------------------------------------------------


 INCAR:
   ALGO = Normal
   EDIFF = 1e-05
   EFERMI = Midgap
   ENCUT = 520.0
   GGA = Pe
   GGA_COMPAT = False
   IBRION = -1
   ISMEAR = 0
   ISPIN = 1
   ISYM = 0
   LAECHG = False
   LASPH = True
   LCHARG = False
   LMAXMIX = 6
   LMIXTAU = True
   LREAL = False
   LWAVE = False
   NCORE = 32
   NELM = 400
   NSW = 0
   PREC = Accurate
   SIGMA = 0.05
   SYSTEM = Na_atom_ispin1

 POTCAR:    PAW_PBE Na_pv 19Sep2006               
 -----------------------------------------------------------------------------
|                                                                             |
|           W    W    AA    RRRRR   N    N  II  N    N   GGGG   !!!           |
|           W    W   A  A   R    R  NN   N  II  NN   N  G    G  !!!           |
|           W    W  A    A  R    R  N N  N  II  N N  N  G       !!!           |
|           W WW W  AAAAAA  RRRRR   N  N N  II  N  N N  G  GGG   !            |
|           WW  WW  A    A  R   R   N   NN  II  N   NN  G    G                |
|           W    W  A    A  R    R  N    N  II  N    N   GGGG   !!!           |
|                                                                             |
|     For optimal performance we recommend to set                             |
|       NCORE = 2 up to number-of-cores-per-socket                            |
|     NCORE specifies how many cores store one orbital (NPAR=cpu/NCORE).      |
|     This setting can greatly improve the performance of VASP for DFT.       |
|     The default, NCORE=1 might be grossly inefficient on modern             |
|     multi-core architectures or massively parallel machines. Do your        |
|     own testing! More info at https://www.vasp.at/wiki/index.php/NCORE      |
|     Unfortunately you need to use the default for GW and RPA                |
|     calculations (for HF NCORE is supported but not extensively tested      |
|     yet).                                                                   |
|                                                                             |
 -----------------------------------------------------------------------------

 POTCAR:    PAW_PBE Na_pv 19Sep2006               
   SHA256 =  6a2f546d9e11350984debacf3dc457d8cffc0868e817d445faca461816a32b94 Na_pv/POTCAR          
   COPYR  = (c) Copyright 19Sep2006 Georg Kresse                                                    
   COPYR  = This file is part of the software VASP. Any use, copying, and all other rights are regul
   COPYR  = If you do not have a valid VASP license, you may not use, copy or distribute this file. 
   VRHFIN =Na: p6s1                                                                                 
   LEXCH  = PE                                                                                      
   EATOM  =   766.0439 eV,   56.3026 Ry                                                             
                                                                                                    
   TITEL  = PAW_PBE Na_pv 19Sep2006                                                                 
   LULTRA =        F    use ultrasoft PP ?                                                          
   IUNSCR =        1    unscreen: 0-lin 1-nonlin 2-no                                               
   RPACOR =    1.800    partial core radius                                                         
   POMASS =   22.990; ZVAL   =    7.000    mass and valenz                                          
   RCORE  =    2.200    outmost cutoff radius                                                       
   RWIGS  =    2.200; RWIGS  =    1.164    wigner-seitz radius (au A)                               
   ENMAX  =  259.561; ENMIN  =  194.671 eV                                                          
   ICORE  =        2    local potential                                                             
   LCOR   =        T    correct aug charges                                                         
   LPAW   =        T    paw PP                                                                      
   EAUG   =  368.056                                                                                
   DEXC   =    0.000                                                                                
   RMAX   =    2.245    core radius for proj-oper                                                   
   RAUG   =    1.300    factor for augmentation sphere                                              
   RDEP   =    2.259    radius for radial grids                                                     
   RDEPT  =    1.738    core radius for aug-charge                                                  
                                                                                                    
   Atomic configuration                                                                             
    5 entries                                                                                       
     n  l   j            E        occ.                                                              
     1  0  0.50     -1033.6933   2.0000                                                             
     2  0  0.50       -56.7526   2.0000                                                             
     2  1  1.50       -28.6721   6.0000                                                             
     3  0  0.50        -2.7440   1.0000                                                             
     3  2  1.50        -1.3606   0.0000                                                             
   Description                                                                                      
     l       E           TYP  RCUT    TYP  RCUT                                                     
     1    -28.6720912     23  2.000                                                                 
     1      6.8029130     23  2.000                                                                 
     0     -2.7439560     23  2.200                                                                 
     0     34.0145650     23  2.200                                                                 
     2     -1.3605826     23  2.200                                                                 
  local pseudopotential read in
  partial core-charges read in
  partial kinetic energy density read in
  atomic valenz-charges read in
  non local Contribution for L=           1  read in
    real space projection operators read in
  non local Contribution for L=           1  read in
    real space projection operators read in
  non local Contribution for L=           0  read in
    real space projection operators read in
  non local Contribution for L=           0  read in
    real space projection operators read in
    PAW grid and wavefunctions read in
 
   number of l-projection  operators is LMAX  =           4
   number of lm-projection operators is LMMAX =           8
 
  PAW_PBE Na_pv 19Sep2006               :
 energy of atom  1       EATOM= -766.0439
 kinetic energy error for atom=    0.0019 (will be added to EATOM!!)
 
 
 POSCAR: Na1
  positions in direct lattice
  No initial velocities read in
 exchange correlation table for  LEXCH =        8
   RHO(1)=    0.500       N(1)  =     2000
   RHO(2)=  100.500       N(2)  =     4000
 


--------------------------------------------------------------------------------------------------------


 ion  position               nearest neighbor table
   1  0.000  0.000  0.000-
 

IMPORTANT INFORMATION: All symmetrisations will be switched off!
NOSYMM: (Re-)initialisation of all symmetry stuff for point group C_1.


----------------------------------------------------------------------------------------

                                     Primitive cell                                     

  volume of cell :    3442.8000

  direct lattice vectors                    reciprocal lattice vectors
    15.000000000  0.000000000  0.000000000     0.066666667 -0.000000000  0.000000000
     0.000000000 15.100000000  0.000000000     0.000000000  0.066225166  0.000000000
     0.000000000  0.000000000 15.200000000    -0.000000000 -0.000000000  0.065789474

  length of vectors
    15.000000000 15.100000000 15.200000000     0.066666667  0.066225166  0.065789474

  position of ions in fractional coordinates (direct lattice)
     0.000000000  0.000000000  0.000000000

  ion indices of the primitive-cell ions
   primitive index   ion index
                 1           1

----------------------------------------------------------------------------------------

 
 
 KPOINTS: Automatic kpoint scheme                 

Automatic generation of k-mesh.
 Grid dimensions read from file:
 generate k-points for:    1    1    1

 Generating k-lattice:

  Cartesian coordinates                     Fractional coordinates (reciprocal lattice)
     0.066666667 -0.000000000  0.000000000     1.000000000 -0.000000000  0.000000000
     0.000000000  0.066225166  0.000000000     0.000000000  1.000000000  0.000000000
    -0.000000000 -0.000000000  0.065789474     0.000000000 -0.000000000  1.000000000

  Length of vectors
     0.066666667  0.066225166  0.065789474

  Shift w.r.t. Gamma in fractional coordinates (k-lattice)
     0.000000000  0.000000000  0.000000000

 
 Subroutine IBZKPT returns following result:
 ===========================================
 
 Found      1 irreducible k-points:
 
 Following reciprocal coordinates:
            Coordinates               Weight
  0.000000  0.000000  0.000000      1.000000
 
 Following cartesian coordinates:
            Coordinates               Weight
  0.000000  0.000000  0.000000      1.000000
 


--------------------------------------------------------------------------------------------------------




 Dimension of arrays:
   k-points           NKPTS =      1   k-points in BZ     NKDIM =      1   number of bands    NBANDS=      8
   number of dos      NEDOS =    301   number of ions     NIONS =      1
   non local maximal  LDIM  =      4   non local SUM 2l+1 LMDIM =      8
   total plane-waves  NPLWV = ******
   max r-space proj   IRMAX =      1   max aug-charges    IRDMAX=  12164
   dimension x,y,z NGX =   112 NGY =  112 NGZ =  120
   dimension x,y,z NGXF=   224 NGYF=  224 NGZF=  240
   support grid    NGXF=   224 NGYF=  224 NGZF=  240
   ions per type =               1
   NGX,Y,Z   is equivalent  to a cutoff of  12.41, 12.33, 13.12 a.u.
   NGXF,Y,Z  is equivalent  to a cutoff of  24.83, 24.66, 26.25 a.u.

 SYSTEM =  Na_atom_ispin1                          
 POSCAR =  Na1                                     

 Startparameter for this run:
   NWRITE =      2    write-flag & timer
   PREC   = accura    normal or accurate (medium, high low for compatibility)
   ISTART =      0    job   : 0-new  1-cont  2-samecut
   ICHARG =      2    charge: 1-file 2-atom 10-const
   ISPIN  =      1    spin polarized calculation?
   LNONCOLLINEAR =      F non collinear calculations
   LSORBIT =      F    spin-orbit coupling
   INIWAV =      1    electr: 0-lowe 1-rand  2-diag
   LASPH  =      T    aspherical Exc in radial PAW
 Electronic Relaxation 1
   ENCUT  =  520.0 eV  38.22 Ry    6.18 a.u.  27.89 28.08 28.26*2*pi/ulx,y,z
   ENINI  =  520.0     initial cutoff
   ENAUG  =  368.1 eV  augmentation charge cutoff
   NELM   =    400;   NELMIN=  2; NELMDL= -5     # of ELM steps 
   EDIFF  = 0.1E-04   stopping-criterion for ELM
   LREAL  =      F    real-space projection
   NLSPLINE    = F    spline interpolate recip. space projectors
   LCOMPAT=      F    compatible to vasp.4.4
   GGA_COMPAT  = F    GGA compatible to vasp.4.4-vasp.4.6
   LMAXPAW     = -100 max onsite density
   LMAXMIX     =    6 max onsite mixed and CHGCAR
   VOSKOWN=      0    Vosko Wilk Nusair interpolation
   ROPT   =    0.00000
 Ionic relaxation
   EDIFFG = 0.1E-03   stopping-criterion for IOM
   NSW    =      0    number of steps for IOM
   NBLOCK =      1;   KBLOCK =      1    inner block; outer block 
   IBRION =     -1    ionic relax: 0-MD 1-quasi-New 2-CG
   NFREE  =      0    steps in history (QN), initial steepest desc. (CG)
   ISIF   =      2    stress and relaxation
   IWAVPR =     10    prediction:  0-non 1-charg 2-wave 3-comb
   ISYM   =      0    0-nonsym 1-usesym 2-fastsym
   LCORR  =      T    Harris-Foulkes like correction to forces

   POTIM  = 0.5000    time-step for ionic-motion
   TEIN   =    0.0    initial temperature
   TEBEG  =    0.0;   TEEND  =   0.0 temperature during run
   SMASS  =  -3.00    Nose mass-parameter (am)
   estimated Nose-frequenzy (Omega)   =  0.10E-29 period in steps = 0.13E+47 mass=  -0.514E-26a.u.
   SCALEE = 1.0000    scale energy and forces
   NPACO  =    256;   APACO  = 10.0  distance and # of slots for P.C.
   PSTRESS=    0.0 pullay stress

  Mass of Ions in am
   POMASS =  22.99
  Ionic Valenz
   ZVAL   =   7.00
  Atomic Wigner-Seitz radii
   RWIGS  =  -1.00
  virtual crystal weights 
   VCA    =   1.00
   NELECT =       7.0000    total number of electrons
   NUPDOWN=      -1.0000    fix difference up-down

 DOS related values:
   EMIN   =  10.00;   EMAX   =-10.00  energy-range for DOS
   EFERMI =   0.00;   METHOD = MIDGAP      
   ISMEAR =     0;   SIGMA  =   0.05  broadening in eV -4-tet -1-fermi 0-gaus

 Electronic relaxation 2 (details)
   IALGO  =     38    algorithm
   LDIAG  =      T    sub-space diagonalisation (order eigenvalues)
   LSUBROT=      F    optimize rotation matrix (better conditioning)
   TURBO    =      0    0=normal 1=particle mesh
   IRESTART =      0    0=no restart 2=restart with 2 vectors
   NREBOOT  =      0    no. of reboots
   NMIN     =      0    reboot dimension
   EREF     =   0.00    reference energy to select bands
   IMIX   =      4    mixing-type and parameters
     AMIX     =   0.40;   BMIX     =  1.00
     AMIX_MAG =   1.60;   BMIX_MAG =  1.00
     AMIN     =   0.10
     WC   =   100.;   INIMIX=   1;  MIXPRE=   1;  MAXMIX= -45

 Intra band minimization:
   WEIMIN = 0.0000     energy-eigenvalue tresh-hold
   EBREAK =  0.31E-06  absolut break condition
   DEPER  =   0.30     relativ break condition  

   TIME   =   0.40     timestep for ELM

  volume/ion in A,a.u.               =    3442.80     23233.16
  Fermi-wavevector in a.u.,A,eV,Ry     =   0.207398  0.391925  0.585237  0.043014
  Thomas-Fermi vector in A             =   0.971082
 
 Write flags
   LWAVE        =      F    write WAVECAR
   LDOWNSAMPLE  =      F    k-point downsampling of WAVECAR
   LCHARG       =      F    write CHGCAR
   LVTOT        =      F    write LOCPOT, total local potential
   LVHAR        =      F    write LOCPOT, Hartree potential only
   LELF         =      F    write electronic localiz. function (ELF)
   LORBIT       =      0    0 simple, 1 ext, 2 COOP (PROOUT), +10 PAW based schemes


 Dipole corrections
   LMONO  =      F    monopole corrections only (constant potential shift)
   LDIPOL =      F    correct potential (dipole corrections)
   IDIPOL =      0    1-x, 2-y, 3-z, 4-all directions 
   EPSILON=  1.0000000 bulk dielectric constant

 Exchange correlation treatment:
   GGA     =    PE    GGA type
   LEXCH   =     8    internal setting for exchange type
   LIBXC   =     F    Libxc                    
   VOSKOWN =     0    Vosko Wilk Nusair interpolation
   LHFCALC =     F    Hartree Fock is set to
   LHFONE  =     F    Hartree Fock one center treatment
   AEXX    =    0.0000 exact exchange contribution

 Linear response parameters
   LEPSILON=     F    determine dielectric tensor
   LRPA    =     F    only Hartree local field effects (RPA)
   LNABLA  =     F    use nabla operator in PAW spheres
   LVEL    =     F    velocity operator in full k-point grid
   CSHIFT  =0.1000    complex shift for real part using Kramers Kronig
   OMEGAMAX=  -1.0    maximum frequency
   DEG_THRESHOLD= 0.2000000E-02 threshold for treating states as degnerate
   RTIME   =   -0.100 relaxation time in fs
  (WPLASMAI=    0.000 imaginary part of plasma frequency in eV, 0.658/RTIME)
   DFIELD  = 0.0000000 0.0000000 0.0000000 field for delta impulse in time
 
  Optional k-point grid parameters
   LKPOINTS_OPT  =     F    use optional k-point grid
   KPOINTS_OPT_MODE=     1    mode for optional k-point grid
 
 Orbital magnetization related:
   ORBITALMAG=     F  switch on orbital magnetization
   LCHIMAG   =     F  perturbation theory with respect to B field
   DQ        =  0.001000  dq finite difference perturbation B field
   LLRAUG    =     F  two centre corrections for induced B field
   LBONE     =     F  B-component reconstruction in AE one-centre
   LVGVCALC  =     T  calculate vGv susceptibility
   LVGVAPPL  =     F  apply vGv susceptibility instead of pGv for G=0

 Random number generation:
   RANDOM_GENERATOR = DEFAULT
   PCG_SEED         = not used


--------------------------------------------------------------------------------------------------------


 Static calculation
 charge density and potential will be updated during run
 non-spin polarized calculation
 Variant of blocked Davidson
 Davidson routine will perform the subspace rotation
 perform sub-space diagonalisation
    after iterative eigenvector-optimisation
 modified Broyden-mixing scheme, WC =      100.0
 initial mixing is a Kerker type mixing with AMIX =  0.4000 and BMIX =      1.0000
 Hartree-type preconditioning will be used
 using additional bands            4
 reciprocal scheme for non local part
 use partial core corrections
 calculate Harris-corrections to forces 
   (improved forces if not selfconsistent)
 use gradient corrections 
 use of overlap-Matrix (Vanderbilt PP)
 Gauss-broadening in eV      SIGMA  =   0.05


--------------------------------------------------------------------------------------------------------


  energy-cutoff  :      520.00
  volume of cell :     3442.80
      direct lattice vectors                 reciprocal lattice vectors
    15.000000000  0.000000000  0.000000000     0.066666667 -0.000000000  0.000000000
     0.000000000 15.100000000  0.000000000     0.000000000  0.066225166  0.000000000
     0.000000000  0.000000000 15.200000000    -0.000000000 -0.000000000  0.065789474

  length of vectors
    15.000000000 15.100000000 15.200000000     0.066666667  0.066225166  0.065789474


 
 k-points in units of 2pi/SCALE and weight: Automatic kpoint scheme                 
   0.00000000  0.00000000  0.00000000       1.000
 
 k-points in reciprocal lattice and weights: Automatic kpoint scheme                 
   0.00000000  0.00000000  0.00000000       1.000
 
 position of ions in fractional coordinates (direct lattice) 
   0.00000000  0.00000000  0.00000000
 
 position of ions in cartesian coordinates  (Angst):
   0.00000000  0.00000000  0.00000000
 


--------------------------------------------------------------------------------------------------------


 use parallel FFT for orbitals z direction half grid
 k-point   1 :   0.0000 0.0000 0.0000  plane waves:   46338

 maximum and minimum number of plane-waves per node :      1457     1434

 maximum number of plane-waves:     46338
 maximum index in each direction: 
   IXMAX=   27   IYMAX=   28   IZMAX=   28
   IXMIN=  -27   IYMIN=  -28   IZMIN=    0


 parallel 3D FFT for wavefunctions:
    minimum data exchange during FFTs selected (reduces bandwidth)
 parallel 3D FFT for charge:
    minimum data exchange during FFTs selected (reduces bandwidth)


 total amount of memory used by VASP MPI-rank0    50902. kBytes
=======================================================================

   base      :      30000. kBytes
   nonl-proj :        116. kBytes
   fftplans  :       8156. kBytes
   grid      :      12536. kBytes
   one-center:          1. kBytes
   wavefun   :         93. kBytes
 
     INWAV:  cpu time      0.0000: real time      0.0003
 Broyden mixing: mesh for mixing (old mesh)
   NGX = 55   NGY = 57   NGZ = 57
  (NGX  =224   NGY  =224   NGZ  =240)
  gives a total of 178695 points

 initial charge density was supplied:
 charge density of overlapping atoms calculated
 number of electron       7.0000000 magnetization 
 keeping initial charge density in first step


--------------------------------------------------------------------------------------------------------


 Maximum index for augmentation-charges          631 (set IRDMAX)


--------------------------------------------------------------------------------------------------------


 First call to EWALD:  gamma=   0.117
 Maximum number of real-space cells 3x 3x 3
 Maximum number of reciprocal cells 3x 3x 3

    FEWALD:  cpu time      0.0010: real time      0.0010


--------------------------------------- Ionic step        1  -------------------------------------------




--------------------------------------- Iteration      1(   1)  ---------------------------------------


    POTLOK:  cpu time      0.1322: real time      0.1333
    SETDIJ:  cpu time      0.0447: real time      0.0450
     EDDAV:  cpu time      0.0242: real time      0.0244
       DOS:  cpu time      0.0006: real time      0.0006
    --------------------------------------------
      LOOP:  cpu time      0.2018: real time      0.2033

 eigenvalue-minimisations  :    16
 total energy-change (2. order) : 0.1594694E+03  (-0.8730361E+02)
 number of electron       7.0000000 magnetization 
 augmentation part        7.0000000 magnetization 

 Free energy of the ion-electron system (eV)
  ---------------------------------------------------
  alpha Z        PSCENC =         0.08856175
  Ewald energy   TEWEN  =       -66.28833240
  -Hartree energ DENC   =      -460.83103679
  -exchange      EXHF   =         0.00000000
  -V(xc)+E(xc)   XCENC  =        23.96397856
  PAW double counting   =       502.34785863     -590.92071171
  entropy T*S    EENTRO =        -0.02830307
  eigenvalues    EBANDS =       -14.90460598
  atomic energy  EATOM  =       766.04200436
  Solvation  Ediel_sol  =         0.00000000
  ---------------------------------------------------
  free energy    TOTEN  =       159.46941334 eV

  energy without entropy =      159.49771641  energy(sigma->0) =      159.48356487


--------------------------------------------------------------------------------------------------------




--------------------------------------- Iteration      1(   2)  ---------------------------------------


     EDDAV:  cpu time      0.0293: real time      0.0301
       DOS:  cpu time      0.0004: real time      0.0004
    --------------------------------------------
      LOOP:  cpu time      0.0296: real time      0.0305

 eigenvalue-minimisations  :    24
 total energy-change (2. order) :-0.1410626E+03  (-0.1410466E+03)
 number of electron       7.0000000 magnetization 
 augmentation part        7.0000000 magnetization 

 Free energy of the ion-electron system (eV)
  ---------------------------------------------------
  alpha Z        PSCENC =         0.08856175
  Ewald energy   TEWEN  =       -66.28833240
  -Hartree energ DENC   =      -460.83103679
  -exchange      EXHF   =         0.00000000
  -V(xc)+E(xc)   XCENC  =        23.96397856
  PAW double counting   =       502.34785863     -590.92071171
  entropy T*S    EENTRO =        -0.02820948
  eigenvalues    EBANDS =      -155.96727556
  atomic energy  EATOM  =       766.04200436
  Solvation  Ediel_sol  =         0.00000000
  ---------------------------------------------------
  free energy    TOTEN  =        18.40683735 eV

  energy without entropy =       18.43504683  energy(sigma->0) =       18.42094209


--------------------------------------------------------------------------------------------------------




--------------------------------------- Iteration      1(   3)  ---------------------------------------


     EDDAV:  cpu time      0.0190: real time      0.0192
       DOS:  cpu time      0.0003: real time      0.0003
    --------------------------------------------
      LOOP:  cpu time      0.0194: real time      0.0196

 eigenvalue-minimisations  :    16
 total energy-change (2. order) :-0.1798470E+02  (-0.1798470E+02)
 number of electron       7.0000000 magnetization 
 augmentation part        7.0000000 magnetization 

 Free energy of the ion-electron system (eV)
  ---------------------------------------------------
  alpha Z        PSCENC =         0.08856175
  Ewald energy   TEWEN  =       -66.28833240
  -Hartree energ DENC   =      -460.83103679
  -exchange      EXHF   =         0.00000000
  -V(xc)+E(xc)   XCENC  =        23.96397856
  PAW double counting   =       502.34785863     -590.92071171
  entropy T*S    EENTRO =        -0.02820948
  eigenvalues    EBANDS =      -173.95197985
  atomic energy  EATOM  =       766.04200436
  Solvation  Ediel_sol  =         0.00000000
  ---------------------------------------------------
  free energy    TOTEN  =         0.42213306 eV

  energy without entropy =        0.45034254  energy(sigma->0) =        0.43623780


--------------------------------------------------------------------------------------------------------




--------------------------------------- Iteration      1(   4)  ---------------------------------------


     EDDAV:  cpu time      0.0179: real time      0.0181
       DOS:  cpu time      0.0004: real time      0.0004
    --------------------------------------------
      LOOP:  cpu time      0.0183: real time      0.0185

 eigenvalue-minimisations  :    16
 total energy-change (2. order) :-0.4502952E+00  (-0.4502952E+00)
 number of electron       7.0000000 magnetization 
 augmentation part        7.0000000 magnetization 

 Free energy of the ion-electron system (eV)
  ---------------------------------------------------
  alpha Z        PSCENC =         0.08856175
  Ewald energy   TEWEN  =       -66.28833240
  -Hartree energ DENC   =      -460.83103679
  -exchange      EXHF   =         0.00000000
  -V(xc)+E(xc)   XCENC  =        23.96397856
  PAW double counting   =       502.34785863     -590.92071171
  entropy T*S    EENTRO =        -0.02820948
  eigenvalues    EBANDS =      -174.40227505
  atomic energy  EATOM  =       766.04200436
  Solvation  Ediel_sol  =         0.00000000
  ---------------------------------------------------
  free energy    TOTEN  =        -0.02816214 eV

  energy without entropy =        0.00004734  energy(sigma->0) =       -0.01405740


--------------------------------------------------------------------------------------------------------




--------------------------------------- Iteration      1(   5)  ---------------------------------------


     EDDAV:  cpu time      0.0182: real time      0.0184
       DOS:  cpu time      0.0004: real time      0.0004
    CHARGE:  cpu time      0.0118: real time      0.0118
    MIXING:  cpu time      0.0031: real time      0.0031
    --------------------------------------------
      LOOP:  cpu time      0.0335: real time      0.0338

 eigenvalue-minimisations  :    16
 total energy-change (2. order) :-0.7880046E-02  (-0.7880046E-02)
 number of electron       6.9999987 magnetization 
 augmentation part        4.4636813 magnetization 

 Broyden mixing:
  rms(total) = 0.21428E-02    rms(broyden)= 0.19968E-02
  rms(prec ) = 0.20492E-02
  weight for this iteration     100.00

 Free energy of the ion-electron system (eV)
  ---------------------------------------------------
  alpha Z        PSCENC =         0.08856175
  Ewald energy   TEWEN  =       -66.28833240
  -Hartree energ DENC   =      -460.83103679
  -exchange      EXHF   =         0.00000000
  -V(xc)+E(xc)   XCENC  =        23.96397856
  PAW double counting   =       502.34785863     -590.92071171
  entropy T*S    EENTRO =        -0.02820948
  eigenvalues    EBANDS =      -174.41015510
  atomic energy  EATOM  =       766.04200436
  Solvation  Ediel_sol  =         0.00000000
  ---------------------------------------------------
  free energy    TOTEN  =        -0.03604219 eV

  energy without entropy =       -0.00783271  energy(sigma->0) =       -0.02193745


--------------------------------------------------------------------------------------------------------




--------------------------------------- Iteration      1(   6)  ---------------------------------------


    POTLOK:  cpu time      0.1337: real time      0.1349
    SETDIJ:  cpu time      0.0441: real time      0.0444
     EDDAV:  cpu time      0.0198: real time      0.0200
       DOS:  cpu time      0.0004: real time      0.0004
    CHARGE:  cpu time      0.0124: real time      0.0125
    MIXING:  cpu time      0.0020: real time      0.0021
    --------------------------------------------
      LOOP:  cpu time      0.2126: real time      0.2142

 eigenvalue-minimisations  :    16
 total energy-change (2. order) :-0.2401581E-03  (-0.2726894E-03)
 number of electron       6.9999987 magnetization 
 augmentation part        4.4641840 magnetization 

 Broyden mixing:
  rms(total) = 0.90218E-03    rms(broyden)= 0.87964E-03
  rms(prec ) = 0.91464E-03
  weight for this iteration     100.00

 eigenvalues of (default mixing * dielectric matrix)
  average eigenvalue GAMMA=   0.9034
  0.9034

 Free energy of the ion-electron system (eV)
  ---------------------------------------------------
  alpha Z        PSCENC =         0.08856175
  Ewald energy   TEWEN  =       -66.28833240
  -Hartree energ DENC   =      -460.82496573
  -exchange      EXHF   =         0.00000000
  -V(xc)+E(xc)   XCENC  =        23.96330237
  PAW double counting   =       502.23244201     -590.80394979
  entropy T*S    EENTRO =        -0.02820948
  eigenvalues    EBANDS =      -174.41713542
  atomic energy  EATOM  =       766.04200436
  Solvation  Ediel_sol  =         0.00000000
  ---------------------------------------------------
  free energy    TOTEN  =        -0.03628235 eV

  energy without entropy =       -0.00807287  energy(sigma->0) =       -0.02217761


--------------------------------------------------------------------------------------------------------




--------------------------------------- Iteration      1(   7)  ---------------------------------------


    POTLOK:  cpu time      0.1340: real time      0.1349
    SETDIJ:  cpu time      0.0441: real time      0.0443
     EDDAV:  cpu time      0.0192: real time      0.0193
       DOS:  cpu time      0.0004: real time      0.0004
    CHARGE:  cpu time      0.0128: real time      0.0130
    MIXING:  cpu time      0.0019: real time      0.0019
    --------------------------------------------
      LOOP:  cpu time      0.2124: real time      0.2138

 eigenvalue-minimisations  :    16
 total energy-change (2. order) :-0.2076682E-04  (-0.1339443E-04)
 number of electron       6.9999987 magnetization 
 augmentation part        4.4639597 magnetization 

 Broyden mixing:
  rms(total) = 0.68532E-03    rms(broyden)= 0.68299E-03
  rms(prec ) = 0.70637E-03
  weight for this iteration     100.00

 eigenvalues of (default mixing * dielectric matrix)
  average eigenvalue GAMMA=   1.1275
  1.1275  1.1275

 Free energy of the ion-electron system (eV)
  ---------------------------------------------------
  alpha Z        PSCENC =         0.08856175
  Ewald energy   TEWEN  =       -66.28833240
  -Hartree energ DENC   =      -460.83098318
  -exchange      EXHF   =         0.00000000
  -V(xc)+E(xc)   XCENC  =        23.96391239
  PAW double counting   =       502.19624241     -590.77509322
  entropy T*S    EENTRO =        -0.02820948
  eigenvalues    EBANDS =      -174.40440574
  atomic energy  EATOM  =       766.04200436
  Solvation  Ediel_sol  =         0.00000000
  ---------------------------------------------------
  free energy    TOTEN  =        -0.03630311 eV

  energy without entropy =       -0.00809363  energy(sigma->0) =       -0.02219837


--------------------------------------------------------------------------------------------------------




--------------------------------------- Iteration      1(   8)  ---------------------------------------


    POTLOK:  cpu time      0.1365: real time      0.1376
    SETDIJ:  cpu time      0.0443: real time      0.0445
     EDDAV:  cpu time      0.0194: real time      0.0196
       DOS:  cpu time      0.0004: real time      0.0004
    CHARGE:  cpu time      0.0123: real time      0.0124
    MIXING:  cpu time      0.0022: real time      0.0022
    --------------------------------------------
      LOOP:  cpu time      0.2152: real time      0.2167

 eigenvalue-minimisations  :    16
 total energy-change (2. order) :-0.1159268E-04  (-0.7459416E-06)
 number of electron       6.9999987 magnetization 
 augmentation part        4.4639933 magnetization 

 Broyden mixing:
  rms(total) = 0.42960E-03    rms(broyden)= 0.42931E-03
  rms(prec ) = 0.44788E-03
  weight for this iteration     100.00

 eigenvalues of (default mixing * dielectric matrix)
  average eigenvalue GAMMA=   1.5613
  2.5340  0.8536  1.2962

 Free energy of the ion-electron system (eV)
  ---------------------------------------------------
  alpha Z        PSCENC =         0.08856175
  Ewald energy   TEWEN  =       -66.28833240
  -Hartree energ DENC   =      -460.82846854
  -exchange      EXHF   =         0.00000000
  -V(xc)+E(xc)   XCENC  =        23.96390556
  PAW double counting   =       502.17413547     -590.75218171
  entropy T*S    EENTRO =        -0.02820948
  eigenvalues    EBANDS =      -174.40772971
  atomic energy  EATOM  =       766.04200436
  Solvation  Ediel_sol  =         0.00000000
  ---------------------------------------------------
  free energy    TOTEN  =        -0.03631471 eV

  energy without entropy =       -0.00810523  energy(sigma->0) =       -0.02220997


--------------------------------------------------------------------------------------------------------




--------------------------------------- Iteration      1(   9)  ---------------------------------------


    POTLOK:  cpu time      0.1306: real time      0.1315
    SETDIJ:  cpu time      0.0442: real time      0.0444
     EDDAV:  cpu time      0.0189: real time      0.0190
       DOS:  cpu time      0.0004: real time      0.0004
    --------------------------------------------
      LOOP:  cpu time      0.1940: real time      0.1954

 eigenvalue-minimisations  :    16
 total energy-change (2. order) :-0.7921224E-05  (-0.2075888E-06)
 number of electron       6.9999987 magnetization 
 augmentation part        4.4639933 magnetization 

 Free energy of the ion-electron system (eV)
  ---------------------------------------------------
  alpha Z        PSCENC =         0.08856175
  Ewald energy   TEWEN  =       -66.28833240
  -Hartree energ DENC   =      -460.82668577
  -exchange      EXHF   =         0.00000000
  -V(xc)+E(xc)   XCENC  =        23.96410187
  PAW double counting   =       502.14250720     -590.72214912
  entropy T*S    EENTRO =        -0.02820948
  eigenvalues    EBANDS =      -174.40812103
  atomic energy  EATOM  =       766.04200436
  Solvation  Ediel_sol  =         0.00000000
  ---------------------------------------------------
  free energy    TOTEN  =        -0.03632263 eV

  energy without entropy =       -0.00811315  energy(sigma->0) =       -0.02221789


--------------------------------------------------------------------------------------------------------




 average (electrostatic) potential at core
  the test charge radii are     0.9254
  (the norm of the test charge is              1.0000)
       1 -54.4173
 
 
 
 E-fermi :  -2.6932     XC(G=0):  -0.4697     alpha+bet : -0.0507

 Fermi energy:        -2.6932441871

 k-point     1 :       0.0000    0.0000    0.0000
  band No.  band energies     occupation 
      1     -28.6192      2.00000
      2     -28.6191      2.00000
      3     -28.6191      2.00000
      4      -2.6932      1.00000
      5      -0.6779      0.00000
      6      -0.6770      0.00000
      7      -0.6761      0.00000
      8      -0.1738      0.00000


--------------------------------------------------------------------------------------------------------


 soft charge-density along one line, spin component           1
         0         1         2         3         4         5         6         7         8         9
 total charge-density along one line
 
 pseudopotential strength for first ion, spin component:           1
-30.842  -0.000  -0.000   5.234   0.000   0.000  -0.000  -0.000
 -0.000 -30.842   0.000   0.000   5.234  -0.000  -0.000  -0.000
 -0.000   0.000 -30.842   0.000  -0.000   5.234  -0.000  -0.000
  5.234   0.000   0.000   5.606  -0.000   0.000   0.000   0.000
  0.000   5.234  -0.000  -0.000   5.606   0.000   0.000   0.000
  0.000  -0.000   5.234   0.000   0.000   5.606   0.000   0.000
 -0.000  -0.000  -0.000   0.000   0.000   0.000   1.415   7.116
 -0.000  -0.000  -0.000   0.000   0.000   0.000   7.116  35.233
 total augmentation occupancy for first ion, spin component:           1
  2.000   0.000   0.000  -0.000  -0.000   0.000  -0.000   0.000
  0.000   2.000  -0.000   0.000  -0.000  -0.000  -0.000   0.000
  0.000  -0.000   2.000   0.000  -0.000  -0.000  -0.000   0.000
 -0.000   0.000   0.000   0.000   0.000  -0.000   0.000   0.000
 -0.000  -0.000  -0.000   0.000   0.000   0.000   0.000   0.000
  0.000  -0.000  -0.000  -0.000   0.000   0.000   0.000   0.000
 -0.000  -0.000  -0.000   0.000   0.000   0.000   0.996   0.001
  0.000   0.000   0.000   0.000   0.000   0.000   0.001   0.000


------------------------ aborting loop because EDIFF is reached ----------------------------------------


    CHARGE:  cpu time      0.0120: real time      0.0121
    FORLOC:  cpu time      0.0020: real time      0.0020
    FORNL :  cpu time      0.0006: real time      0.0006
    STRESS:  cpu time      0.0068: real time      0.0069
    FORCOR:  cpu time      0.1282: real time      0.1291
    FORHAR:  cpu time      0.0313: real time      0.0316
    MIXING:  cpu time      0.0022: real time      0.0022
    OFIELD:  cpu time      0.0000: real time      0.0000

  FORCE on cell =-STRESS in cart. coord.  units (eV):
  Direction    XX          YY          ZZ          XY          YZ          ZX
  --------------------------------------------------------------------------------------
  Alpha Z     0.08856     0.08856     0.08856
  Ewald     -21.65015   -22.09650   -22.54168     0.00000     0.00000     0.00000
  Hartree   154.04508   153.60755   153.17100    -0.00000     0.00000     0.00000
  E(xc)     -37.18057   -37.18057   -37.18057    -0.00000    -0.00000    -0.00000
  Local    -163.02632  -162.14239  -161.26062     0.00001     0.00000    -0.00001
  n-local   -22.46059   -22.46063   -22.46060     0.00002     0.00002    -0.00002
  augment    42.02629    42.02677    42.02668    -0.00001     0.00000     0.00001
  Kinetic    48.15617    48.15631    48.15644    -0.00001    -0.00001     0.00001
  Fock        0.00000     0.00000     0.00000     0.00000     0.00000     0.00000
  -------------------------------------------------------------------------------------
  Total      -0.00152    -0.00091    -0.00079     0.00000     0.00001    -0.00001
  in kB      -0.00071    -0.00042    -0.00037     0.00000     0.00001    -0.00000
  external pressure =       -0.00 kB  Pullay stress =        0.00 kB


 VOLUME and BASIS-vectors are now :
 -----------------------------------------------------------------------------
  energy-cutoff  :      520.00
  volume of cell :     3442.80
      direct lattice vectors                 reciprocal lattice vectors
    15.000000000  0.000000000  0.000000000     0.066666667 -0.000000000  0.000000000
     0.000000000 15.100000000  0.000000000     0.000000000  0.066225166  0.000000000
     0.000000000  0.000000000 15.200000000    -0.000000000 -0.000000000  0.065789474

  length of vectors
    15.000000000 15.100000000 15.200000000     0.066666667  0.066225166  0.065789474


 FORCES acting on ions
    electron-ion (+dipol)            ewald-force                    non-local-force                 convergence-correction
 -----------------------------------------------------------------------------------------------
   -.707E-03 -.158E-02 -.107E-02   0.933E-17 0.909E-17 -.291E-17   -.172E-02 -.385E-02 -.272E-02   0.248E-02 0.553E-02 0.383E-02
 -----------------------------------------------------------------------------------------------
   -.707E-03 -.158E-02 -.107E-02   0.933E-17 0.909E-17 -.291E-17   -.172E-02 -.385E-02 -.272E-02   0.248E-02 0.553E-02 0.383E-02
 
 
 POSITION                                       TOTAL-FORCE (eV/Angst)
 -----------------------------------------------------------------------------------
      0.00000      0.00000      0.00000         0.000049      0.000101      0.000030
 -----------------------------------------------------------------------------------
    total drift:                                0.000049      0.000101      0.000030


--------------------------------------------------------------------------------------------------------



  FREE ENERGIE OF THE ION-ELECTRON SYSTEM (eV)
  ---------------------------------------------------
  free  energy   TOTEN  =        -0.03632263 eV

  energy  without entropy=       -0.00811315  energy(sigma->0) =       -0.02221789
 


--------------------------------------------------------------------------------------------------------


    POTLOK:  cpu time      0.1750: real time      0.1763


--------------------------------------------------------------------------------------------------------


     LOOP+:  cpu time      1.5414: real time      1.5555
    4ORBIT:  cpu time      0.0000: real time      0.0000

 total amount of memory used by VASP MPI-rank0    50902. kBytes
=======================================================================

   base      :      30000. kBytes
   nonl-proj :        116. kBytes
   fftplans  :       8156. kBytes
   grid      :      12536. kBytes
   one-center:          1. kBytes
   wavefun   :         93. kBytes
 
  
  
 General timing and accounting informations for this job:
 ========================================================
  
                  Total CPU time used (sec):        2.883
                            User time (sec):        2.386
                          System time (sec):        0.497
                         Elapsed time (sec):        3.454
  
                   Maximum memory used (kb):      425120.
                   Average memory used (kb):          N/A
  
                          Minor page faults:        39144
                          Major page faults:           33
                 Voluntary context switches:         1135
