 vasp.6.4.2 20Jul23 (build Aug 07 2024 12:45:50) gamma-only                     
  
 executed on             LinuxIFC date 2026.09.30  12:22:11
 running   64 mpi-ranks, on    1 nodes
 distrk:  each k-point on   64 cores,    1 groups
 distr:  one band on NCORE=  32 cores,    2 groups


--------------------------------------------------------------------------------------------------------


 INCAR:
   ALGO = Normal
   EDIFF = 1e-05
   EFERMI = Midgap
   ENCUT = 520.0
   GGA = Pe
   GGA_COMPAT = False
   IBRION = -1
   ISMEAR = 0
   ISPIN = 2
   ISYM = 0
   LAECHG = False
   LASPH = True
   LCHARG = False
   LMAXMIX = 6
   LMIXTAU = True
   LREAL = False
   LWAVE = False
   MAGMOM = 1*2.0
   NCORE = 32
   NELM = 400
   NSW = 0
   PREC = Accurate
   SIGMA = 0.05
   SYSTEM = Se_atom_ispin2

 POTCAR:    PAW_PBE Se 06Sep2000                  
 -----------------------------------------------------------------------------
|                                                                             |
|           W    W    AA    RRRRR   N    N  II  N    N   GGGG   !!!           |
|           W    W   A  A   R    R  NN   N  II  NN   N  G    G  !!!           |
|           W    W  A    A  R    R  N N  N  II  N N  N  G       !!!           |
|           W WW W  AAAAAA  RRRRR   N  N N  II  N  N N  G  GGG   !            |
|           WW  WW  A    A  R   R   N   NN  II  N   NN  G    G                |
|           W    W  A    A  R    R  N    N  II  N    N   GGGG   !!!           |
|                                                                             |
|     For optimal performance we recommend to set                             |
|       NCORE = 2 up to number-of-cores-per-socket                            |
|     NCORE specifies how many cores store one orbital (NPAR=cpu/NCORE).      |
|     This setting can greatly improve the performance of VASP for DFT.       |
|     The default, NCORE=1 might be grossly inefficient on modern             |
|     multi-core architectures or massively parallel machines. Do your        |
|     own testing! More info at https://www.vasp.at/wiki/index.php/NCORE      |
|     Unfortunately you need to use the default for GW and RPA                |
|     calculations (for HF NCORE is supported but not extensively tested      |
|     yet).                                                                   |
|                                                                             |
 -----------------------------------------------------------------------------

 POTCAR:    PAW_PBE Se 06Sep2000                  
   SHA256 =  eabb916e6b4c819dc065ce039373bc328651da483898f08fb9e49c498452bf12 Se/POTCAR             
   COPYR  = (c) Copyright 06Sep2000 Georg Kresse                                                    
   COPYR  = This file is part of the software VASP. Any use, copying, and all other rights are regul
   COPYR  = If you do not have a valid VASP license, you may not use, copy or distribute this file. 
   VRHFIN =Se: s2p4                                                                                 
   LEXCH  = PE                                                                                      
   EATOM  =   257.1286 eV,   18.8984 Ry                                                             
                                                                                                    
   TITEL  = PAW_PBE Se 06Sep2000                                                                    
   LULTRA =        F    use ultrasoft PP ?                                                          
   IUNSCR =        1    unscreen: 0-lin 1-nonlin 2-no                                               
   RPACOR =    1.900    partial core radius                                                         
   POMASS =   78.960; ZVAL   =    6.000    mass and valenz                                          
   RCORE  =    2.100    outmost cutoff radius                                                       
   RWIGS  =    2.200; RWIGS  =    1.164    wigner-seitz radius (au A)                               
   ENMAX  =  211.555; ENMIN  =  158.666 eV                                                          
   ICORE  =        3    local potential                                                             
   LCOR   =        T    correct aug charges                                                         
   LPAW   =        T    paw PP                                                                      
   EAUG   =  446.842                                                                                
   DEXC   =    0.000                                                                                
   RMAX   =    2.147    core radius for proj-oper                                                   
   RAUG   =    1.300    factor for augmentation sphere                                              
   RDEP   =    2.177    radius for radial grids                                                     
   RDEPT  =    1.928    core radius for aug-charge                                                  
                                                                                                    
   Atomic configuration                                                                             
   10 entries                                                                                       
     n  l   j            E        occ.                                                              
     1  0  0.50    -12503.4787   2.0000                                                             
     2  0  0.50     -1606.9547   2.0000                                                             
     2  1  1.50     -1413.3140   6.0000                                                             
     3  0  0.50      -213.4885   2.0000                                                             
     3  1  1.50      -152.9538   6.0000                                                             
     3  2  2.50       -53.1221  10.0000                                                             
     4  0  0.50       -17.2865   2.0000                                                             
     4  1  0.50        -6.5110   4.0000                                                             
     4  2  2.50        -6.8029   0.0000                                                             
     4  3  2.50        -6.8029   0.0000                                                             
   Description                                                                                      
     l       E           TYP  RCUT    TYP  RCUT                                                     
     0    -17.2865377     23  2.100                                                                 
     0    -15.3094411     23  2.100                                                                 
     1     -6.5110275     23  2.100                                                                 
     1     -0.0695192     23  2.100                                                                 
     2     -6.8029130     23  2.100                                                                 
     3     -1.3605826      7  2.100                                                                 
  local pseudopotential read in
  partial core-charges read in
  partial kinetic energy density read in
  atomic valenz-charges read in
  non local Contribution for L=           0  read in
    real space projection operators read in
  non local Contribution for L=           0  read in
    real space projection operators read in
  non local Contribution for L=           1  read in
    real space projection operators read in
  non local Contribution for L=           1  read in
    real space projection operators read in
  non local Contribution for L=           2  read in
    real space projection operators read in
    PAW grid and wavefunctions read in
 
   number of l-projection  operators is LMAX  =           5
   number of lm-projection operators is LMMAX =          13
 
  PAW_PBE Se 06Sep2000                  :
 energy of atom  1       EATOM= -257.1286
 kinetic energy error for atom=    0.0007 (will be added to EATOM!!)
 
 
 POSCAR: Se1
  positions in direct lattice
  No initial velocities read in
 exchange correlation table for  LEXCH =        8
   RHO(1)=    0.500       N(1)  =     2000
   RHO(2)=  100.500       N(2)  =     4000
 


--------------------------------------------------------------------------------------------------------


 ion  position               nearest neighbor table
   1  0.000  0.000  0.000-
 

IMPORTANT INFORMATION: All symmetrisations will be switched off!
NOSYMM: (Re-)initialisation of all symmetry stuff for point group C_1.


----------------------------------------------------------------------------------------

                                     Primitive cell                                     

  volume of cell :    3442.8000

  direct lattice vectors                    reciprocal lattice vectors
    15.000000000  0.000000000  0.000000000     0.066666667 -0.000000000  0.000000000
     0.000000000 15.100000000  0.000000000     0.000000000  0.066225166  0.000000000
     0.000000000  0.000000000 15.200000000    -0.000000000 -0.000000000  0.065789474

  length of vectors
    15.000000000 15.100000000 15.200000000     0.066666667  0.066225166  0.065789474

  position of ions in fractional coordinates (direct lattice)
     0.000000000  0.000000000  0.000000000

  ion indices of the primitive-cell ions
   primitive index   ion index
                 1           1

----------------------------------------------------------------------------------------

 
 
 KPOINTS: Automatic kpoint scheme                 

Automatic generation of k-mesh.
 Grid dimensions read from file:
 generate k-points for:    1    1    1

 Generating k-lattice:

  Cartesian coordinates                     Fractional coordinates (reciprocal lattice)
     0.066666667 -0.000000000  0.000000000     1.000000000 -0.000000000  0.000000000
     0.000000000  0.066225166  0.000000000     0.000000000  1.000000000  0.000000000
    -0.000000000 -0.000000000  0.065789474     0.000000000 -0.000000000  1.000000000

  Length of vectors
     0.066666667  0.066225166  0.065789474

  Shift w.r.t. Gamma in fractional coordinates (k-lattice)
     0.000000000  0.000000000  0.000000000

 
 Subroutine IBZKPT returns following result:
 ===========================================
 
 Found      1 irreducible k-points:
 
 Following reciprocal coordinates:
            Coordinates               Weight
  0.000000  0.000000  0.000000      1.000000
 
 Following cartesian coordinates:
            Coordinates               Weight
  0.000000  0.000000  0.000000      1.000000
 


--------------------------------------------------------------------------------------------------------




 Dimension of arrays:
   k-points           NKPTS =      1   k-points in BZ     NKDIM =      1   number of bands    NBANDS=      8
   number of dos      NEDOS =    301   number of ions     NIONS =      1
   non local maximal  LDIM  =      5   non local SUM 2l+1 LMDIM =     13
   total plane-waves  NPLWV = ******
   max r-space proj   IRMAX =      1   max aug-charges    IRDMAX=  19265
   dimension x,y,z NGX =   112 NGY =  112 NGZ =  120
   dimension x,y,z NGXF=   224 NGYF=  224 NGZF=  240
   support grid    NGXF=   224 NGYF=  224 NGZF=  240
   ions per type =               1
   NGX,Y,Z   is equivalent  to a cutoff of  12.41, 12.33, 13.12 a.u.
   NGXF,Y,Z  is equivalent  to a cutoff of  24.83, 24.66, 26.25 a.u.

 SYSTEM =  Se_atom_ispin2                          
 POSCAR =  Se1                                     

 Startparameter for this run:
   NWRITE =      2    write-flag & timer
   PREC   = accura    normal or accurate (medium, high low for compatibility)
   ISTART =      0    job   : 0-new  1-cont  2-samecut
   ICHARG =      2    charge: 1-file 2-atom 10-const
   ISPIN  =      2    spin polarized calculation?
   LNONCOLLINEAR =      F non collinear calculations
   LSORBIT =      F    spin-orbit coupling
   INIWAV =      1    electr: 0-lowe 1-rand  2-diag
   LASPH  =      T    aspherical Exc in radial PAW
 Electronic Relaxation 1
   ENCUT  =  520.0 eV  38.22 Ry    6.18 a.u.  27.89 28.08 28.26*2*pi/ulx,y,z
   ENINI  =  520.0     initial cutoff
   ENAUG  =  446.8 eV  augmentation charge cutoff
   NELM   =    400;   NELMIN=  2; NELMDL= -5     # of ELM steps 
   EDIFF  = 0.1E-04   stopping-criterion for ELM
   LREAL  =      F    real-space projection
   NLSPLINE    = F    spline interpolate recip. space projectors
   LCOMPAT=      F    compatible to vasp.4.4
   GGA_COMPAT  = F    GGA compatible to vasp.4.4-vasp.4.6
   LMAXPAW     = -100 max onsite density
   LMAXMIX     =    6 max onsite mixed and CHGCAR
   VOSKOWN=      0    Vosko Wilk Nusair interpolation
   ROPT   =    0.00000
 Ionic relaxation
   EDIFFG = 0.1E-03   stopping-criterion for IOM
   NSW    =      0    number of steps for IOM
   NBLOCK =      1;   KBLOCK =      1    inner block; outer block 
   IBRION =     -1    ionic relax: 0-MD 1-quasi-New 2-CG
   NFREE  =      0    steps in history (QN), initial steepest desc. (CG)
   ISIF   =      2    stress and relaxation
   IWAVPR =     10    prediction:  0-non 1-charg 2-wave 3-comb
   ISYM   =      0    0-nonsym 1-usesym 2-fastsym
   LCORR  =      T    Harris-Foulkes like correction to forces

   POTIM  = 0.5000    time-step for ionic-motion
   TEIN   =    0.0    initial temperature
   TEBEG  =    0.0;   TEEND  =   0.0 temperature during run
   SMASS  =  -3.00    Nose mass-parameter (am)
   estimated Nose-frequenzy (Omega)   =  0.10E-29 period in steps = 0.13E+47 mass=  -0.514E-26a.u.
   SCALEE = 1.0000    scale energy and forces
   NPACO  =    256;   APACO  = 10.0  distance and # of slots for P.C.
   PSTRESS=    0.0 pullay stress

  Mass of Ions in am
   POMASS =  78.96
  Ionic Valenz
   ZVAL   =   6.00
  Atomic Wigner-Seitz radii
   RWIGS  =  -1.00
  virtual crystal weights 
   VCA    =   1.00
   NELECT =       6.0000    total number of electrons
   NUPDOWN=      -1.0000    fix difference up-down

 DOS related values:
   EMIN   =  10.00;   EMAX   =-10.00  energy-range for DOS
   EFERMI =   0.00;   METHOD = MIDGAP      
   ISMEAR =     0;   SIGMA  =   0.05  broadening in eV -4-tet -1-fermi 0-gaus

 Electronic relaxation 2 (details)
   IALGO  =     38    algorithm
   LDIAG  =      T    sub-space diagonalisation (order eigenvalues)
   LSUBROT=      F    optimize rotation matrix (better conditioning)
   TURBO    =      0    0=normal 1=particle mesh
   IRESTART =      0    0=no restart 2=restart with 2 vectors
   NREBOOT  =      0    no. of reboots
   NMIN     =      0    reboot dimension
   EREF     =   0.00    reference energy to select bands
   IMIX   =      4    mixing-type and parameters
     AMIX     =   0.40;   BMIX     =  1.00
     AMIX_MAG =   1.60;   BMIX_MAG =  1.00
     AMIN     =   0.10
     WC   =   100.;   INIMIX=   1;  MIXPRE=   1;  MAXMIX= -45

 Intra band minimization:
   WEIMIN = 0.0000     energy-eigenvalue tresh-hold
   EBREAK =  0.31E-06  absolut break condition
   DEPER  =   0.30     relativ break condition  

   TIME   =   0.40     timestep for ELM

  volume/ion in A,a.u.               =    3442.80     23233.16
  Fermi-wavevector in a.u.,A,eV,Ry     =   0.197010  0.372295  0.528081  0.038813
  Thomas-Fermi vector in A             =   0.946450
 
 Write flags
   LWAVE        =      F    write WAVECAR
   LDOWNSAMPLE  =      F    k-point downsampling of WAVECAR
   LCHARG       =      F    write CHGCAR
   LVTOT        =      F    write LOCPOT, total local potential
   LVHAR        =      F    write LOCPOT, Hartree potential only
   LELF         =      F    write electronic localiz. function (ELF)
   LORBIT       =      0    0 simple, 1 ext, 2 COOP (PROOUT), +10 PAW based schemes


 Dipole corrections
   LMONO  =      F    monopole corrections only (constant potential shift)
   LDIPOL =      F    correct potential (dipole corrections)
   IDIPOL =      0    1-x, 2-y, 3-z, 4-all directions 
   EPSILON=  1.0000000 bulk dielectric constant

 Exchange correlation treatment:
   GGA     =    PE    GGA type
   LEXCH   =     8    internal setting for exchange type
   LIBXC   =     F    Libxc                    
   VOSKOWN =     0    Vosko Wilk Nusair interpolation
   LHFCALC =     F    Hartree Fock is set to
   LHFONE  =     F    Hartree Fock one center treatment
   AEXX    =    0.0000 exact exchange contribution

 Linear response parameters
   LEPSILON=     F    determine dielectric tensor
   LRPA    =     F    only Hartree local field effects (RPA)
   LNABLA  =     F    use nabla operator in PAW spheres
   LVEL    =     F    velocity operator in full k-point grid
   CSHIFT  =0.1000    complex shift for real part using Kramers Kronig
   OMEGAMAX=  -1.0    maximum frequency
   DEG_THRESHOLD= 0.2000000E-02 threshold for treating states as degnerate
   RTIME   =   -0.100 relaxation time in fs
  (WPLASMAI=    0.000 imaginary part of plasma frequency in eV, 0.658/RTIME)
   DFIELD  = 0.0000000 0.0000000 0.0000000 field for delta impulse in time
 
  Optional k-point grid parameters
   LKPOINTS_OPT  =     F    use optional k-point grid
   KPOINTS_OPT_MODE=     1    mode for optional k-point grid
 
 Orbital magnetization related:
   ORBITALMAG=     F  switch on orbital magnetization
   LCHIMAG   =     F  perturbation theory with respect to B field
   DQ        =  0.001000  dq finite difference perturbation B field
   LLRAUG    =     F  two centre corrections for induced B field
   LBONE     =     F  B-component reconstruction in AE one-centre
   LVGVCALC  =     T  calculate vGv susceptibility
   LVGVAPPL  =     F  apply vGv susceptibility instead of pGv for G=0

 Random number generation:
   RANDOM_GENERATOR = DEFAULT
   PCG_SEED         = not used


--------------------------------------------------------------------------------------------------------


 Static calculation
 charge density and potential will be updated during run
 spin polarized calculation
 Variant of blocked Davidson
 Davidson routine will perform the subspace rotation
 perform sub-space diagonalisation
    after iterative eigenvector-optimisation
 modified Broyden-mixing scheme, WC =      100.0
 initial mixing is a Kerker type mixing with AMIX =  0.4000 and BMIX =      1.0000
 Hartree-type preconditioning will be used
 using additional bands            5
 reciprocal scheme for non local part
 use partial core corrections
 calculate Harris-corrections to forces 
   (improved forces if not selfconsistent)
 use gradient corrections 
 use of overlap-Matrix (Vanderbilt PP)
 Gauss-broadening in eV      SIGMA  =   0.05


--------------------------------------------------------------------------------------------------------


  energy-cutoff  :      520.00
  volume of cell :     3442.80
      direct lattice vectors                 reciprocal lattice vectors
    15.000000000  0.000000000  0.000000000     0.066666667 -0.000000000  0.000000000
     0.000000000 15.100000000  0.000000000     0.000000000  0.066225166  0.000000000
     0.000000000  0.000000000 15.200000000    -0.000000000 -0.000000000  0.065789474

  length of vectors
    15.000000000 15.100000000 15.200000000     0.066666667  0.066225166  0.065789474


 
 k-points in units of 2pi/SCALE and weight: Automatic kpoint scheme                 
   0.00000000  0.00000000  0.00000000       1.000
 
 k-points in reciprocal lattice and weights: Automatic kpoint scheme                 
   0.00000000  0.00000000  0.00000000       1.000
 
 position of ions in fractional coordinates (direct lattice) 
   0.00000000  0.00000000  0.00000000
 
 position of ions in cartesian coordinates  (Angst):
   0.00000000  0.00000000  0.00000000
 


--------------------------------------------------------------------------------------------------------


 use parallel FFT for orbitals z direction half grid
 k-point   1 :   0.0000 0.0000 0.0000  plane waves:   46338

 maximum and minimum number of plane-waves per node :      1457     1434

 maximum number of plane-waves:     46338
 maximum index in each direction: 
   IXMAX=   27   IYMAX=   28   IZMAX=   28
   IXMIN=  -27   IYMIN=  -28   IZMIN=    0


 parallel 3D FFT for wavefunctions:
    minimum data exchange during FFTs selected (reduces bandwidth)
 parallel 3D FFT for charge:
    minimum data exchange during FFTs selected (reduces bandwidth)


 total amount of memory used by VASP MPI-rank0    58423. kBytes
=======================================================================

   base      :      30000. kBytes
   nonl-proj :        174. kBytes
   fftplans  :       8156. kBytes
   grid      :      19898. kBytes
   one-center:          8. kBytes
   wavefun   :        187. kBytes
 
     INWAV:  cpu time      0.0000: real time      0.0003
 Broyden mixing: mesh for mixing (old mesh)
   NGX = 55   NGY = 57   NGZ = 57
  (NGX  =224   NGY  =224   NGZ  =240)
  gives a total of 178695 points

 initial charge density was supplied:
 charge density of overlapping atoms calculated
 number of electron       6.0000000 magnetization       2.0000000
 keeping initial charge density in first step


--------------------------------------------------------------------------------------------------------


 Maximum index for augmentation-charges          863 (set IRDMAX)


--------------------------------------------------------------------------------------------------------


 First call to EWALD:  gamma=   0.117
 Maximum number of real-space cells 3x 3x 3
 Maximum number of reciprocal cells 3x 3x 3

    FEWALD:  cpu time      0.0010: real time      0.0010


--------------------------------------- Ionic step        1  -------------------------------------------




--------------------------------------- Iteration      1(   1)  ---------------------------------------


    POTLOK:  cpu time      0.4042: real time      0.4071
    SETDIJ:  cpu time      0.4714: real time      0.4737
     EDDAV:  cpu time      0.0412: real time      0.0416
       DOS:  cpu time      0.0007: real time      0.0007
    --------------------------------------------
      LOOP:  cpu time      0.9175: real time      0.9230

 eigenvalue-minimisations  :    32
 total energy-change (2. order) : 0.3342805E+02  (-0.8630728E+02)
 number of electron       6.0000000 magnetization       2.0000000
 augmentation part        6.0000000 magnetization       2.0000000

 Free energy of the ion-electron system (eV)
  ---------------------------------------------------
  alpha Z        PSCENC =         0.10128913
  Ewald energy   TEWEN  =       -48.70163197
  -Hartree energ DENC   =      -160.20247364
  -exchange      EXHF   =         0.00000000
  -V(xc)+E(xc)   XCENC  =        -1.57518707
  PAW double counting   =       210.00372395     -196.18044697
  entropy T*S    EENTRO =        -0.02678213
  eigenvalues    EBANDS =       -27.11830261
  atomic energy  EATOM  =       257.12785820
  Solvation  Ediel_sol  =         0.00000000
  ---------------------------------------------------
  free energy    TOTEN  =        33.42804689 eV

  energy without entropy =       33.45482902  energy(sigma->0) =       33.44143796


--------------------------------------------------------------------------------------------------------




--------------------------------------- Iteration      1(   2)  ---------------------------------------


     EDDAV:  cpu time      0.0622: real time      0.0634
       DOS:  cpu time      0.0002: real time      0.0002
    --------------------------------------------
      LOOP:  cpu time      0.0624: real time      0.0635

 eigenvalue-minimisations  :    64
 total energy-change (2. order) :-0.2071241E+02  (-0.2037483E+02)
 number of electron       6.0000000 magnetization       2.0000000
 augmentation part        6.0000000 magnetization       2.0000000

 Free energy of the ion-electron system (eV)
  ---------------------------------------------------
  alpha Z        PSCENC =         0.10128913
  Ewald energy   TEWEN  =       -48.70163197
  -Hartree energ DENC   =      -160.20247364
  -exchange      EXHF   =         0.00000000
  -V(xc)+E(xc)   XCENC  =        -1.57518707
  PAW double counting   =       210.00372395     -196.18044697
  entropy T*S    EENTRO =        -0.00000001
  eigenvalues    EBANDS =       -47.85749312
  atomic energy  EATOM  =       257.12785820
  Solvation  Ediel_sol  =         0.00000000
  ---------------------------------------------------
  free energy    TOTEN  =        12.71563851 eV

  energy without entropy =       12.71563852  energy(sigma->0) =       12.71563851


--------------------------------------------------------------------------------------------------------




--------------------------------------- Iteration      1(   3)  ---------------------------------------


     EDDAV:  cpu time      0.0479: real time      0.0483
       DOS:  cpu time      0.0002: real time      0.0002
    --------------------------------------------
      LOOP:  cpu time      0.0481: real time      0.0485

 eigenvalue-minimisations  :    48
 total energy-change (2. order) :-0.1276169E+02  (-0.1153951E+02)
 number of electron       6.0000000 magnetization       2.0000000
 augmentation part        6.0000000 magnetization       2.0000000

 Free energy of the ion-electron system (eV)
  ---------------------------------------------------
  alpha Z        PSCENC =         0.10128913
  Ewald energy   TEWEN  =       -48.70163197
  -Hartree energ DENC   =      -160.20247364
  -exchange      EXHF   =         0.00000000
  -V(xc)+E(xc)   XCENC  =        -1.57518707
  PAW double counting   =       210.00372395     -196.18044697
  entropy T*S    EENTRO =        -0.02351986
  eigenvalues    EBANDS =       -60.59566708
  atomic energy  EATOM  =       257.12785820
  Solvation  Ediel_sol  =         0.00000000
  ---------------------------------------------------
  free energy    TOTEN  =        -0.04605531 eV

  energy without entropy =       -0.02253545  energy(sigma->0) =       -0.03429538


--------------------------------------------------------------------------------------------------------




--------------------------------------- Iteration      1(   4)  ---------------------------------------


     EDDAV:  cpu time      0.0370: real time      0.0374
       DOS:  cpu time      0.0004: real time      0.0004
    --------------------------------------------
      LOOP:  cpu time      0.0373: real time      0.0377

 eigenvalue-minimisations  :    32
 total energy-change (2. order) :-0.7340823E+00  (-0.7197098E+00)
 number of electron       6.0000000 magnetization       2.0000000
 augmentation part        6.0000000 magnetization       2.0000000

 Free energy of the ion-electron system (eV)
  ---------------------------------------------------
  alpha Z        PSCENC =         0.10128913
  Ewald energy   TEWEN  =       -48.70163197
  -Hartree energ DENC   =      -160.20247364
  -exchange      EXHF   =         0.00000000
  -V(xc)+E(xc)   XCENC  =        -1.57518707
  PAW double counting   =       210.00372395     -196.18044697
  entropy T*S    EENTRO =        -0.03855503
  eigenvalues    EBANDS =       -61.31471421
  atomic energy  EATOM  =       257.12785820
  Solvation  Ediel_sol  =         0.00000000
  ---------------------------------------------------
  free energy    TOTEN  =        -0.78013761 eV

  energy without entropy =       -0.74158258  energy(sigma->0) =       -0.76086009


--------------------------------------------------------------------------------------------------------




--------------------------------------- Iteration      1(   5)  ---------------------------------------


     EDDAV:  cpu time      0.0601: real time      0.0605
       DOS:  cpu time      0.0004: real time      0.0004
    CHARGE:  cpu time      0.0236: real time      0.0238
    MIXING:  cpu time      0.0044: real time      0.0044
    --------------------------------------------
      LOOP:  cpu time      0.0885: real time      0.0891

 eigenvalue-minimisations  :    64
 total energy-change (2. order) :-0.6653229E-02  (-0.6642689E-02)
 number of electron       5.9999999 magnetization       2.0000000
 augmentation part       -1.1393256 magnetization      -0.1669177

 Broyden mixing:
  rms(total) = 0.10698E+00    rms(broyden)= 0.10697E+00
  rms(prec ) = 0.10738E+00
  weight for this iteration     100.00

 Free energy of the ion-electron system (eV)
  ---------------------------------------------------
  alpha Z        PSCENC =         0.10128913
  Ewald energy   TEWEN  =       -48.70163197
  -Hartree energ DENC   =      -160.20247364
  -exchange      EXHF   =         0.00000000
  -V(xc)+E(xc)   XCENC  =        -1.57518707
  PAW double counting   =       210.00372395     -196.18044697
  entropy T*S    EENTRO =        -0.03856558
  eigenvalues    EBANDS =       -61.32135689
  atomic energy  EATOM  =       257.12785820
  Solvation  Ediel_sol  =         0.00000000
  ---------------------------------------------------
  free energy    TOTEN  =        -0.78679083 eV

  energy without entropy =       -0.74822525  energy(sigma->0) =       -0.76750804


--------------------------------------------------------------------------------------------------------




--------------------------------------- Iteration      1(   6)  ---------------------------------------


    POTLOK:  cpu time      0.3332: real time      0.3356
    SETDIJ:  cpu time      0.4700: real time      0.4723
     EDDAV:  cpu time      0.0397: real time      0.0399
       DOS:  cpu time      0.0004: real time      0.0004
    CHARGE:  cpu time      0.0235: real time      0.0237
    MIXING:  cpu time      0.0043: real time      0.0044
    --------------------------------------------
      LOOP:  cpu time      0.8712: real time      0.8763

 eigenvalue-minimisations  :    32
 total energy-change (2. order) :-0.1386370E-01  (-0.3860941E-02)
 number of electron       5.9999999 magnetization       2.0000000
 augmentation part       -1.1368635 magnetization      -0.1558008

 Broyden mixing:
  rms(total) = 0.45241E-01    rms(broyden)= 0.45241E-01
  rms(prec ) = 0.45401E-01
  weight for this iteration     100.00

 eigenvalues of (default mixing * dielectric matrix)
  average eigenvalue GAMMA=   0.7426
  0.7426

 Free energy of the ion-electron system (eV)
  ---------------------------------------------------
  alpha Z        PSCENC =         0.10128913
  Ewald energy   TEWEN  =       -48.70163197
  -Hartree energ DENC   =      -160.44025545
  -exchange      EXHF   =         0.00000000
  -V(xc)+E(xc)   XCENC  =        -1.51981736
  PAW double counting   =       211.14863785     -197.38148659
  entropy T*S    EENTRO =        -0.03856558
  eigenvalues    EBANDS =       -61.09668276
  atomic energy  EATOM  =       257.12785820
  Solvation  Ediel_sol  =         0.00000000
  ---------------------------------------------------
  free energy    TOTEN  =        -0.80065454 eV

  energy without entropy =       -0.76208896  energy(sigma->0) =       -0.78137175


--------------------------------------------------------------------------------------------------------




--------------------------------------- Iteration      1(   7)  ---------------------------------------


    POTLOK:  cpu time      0.3311: real time      0.3335
    SETDIJ:  cpu time      0.4708: real time      0.4730
     EDDAV:  cpu time      0.0501: real time      0.0505
       DOS:  cpu time      0.0004: real time      0.0004
    CHARGE:  cpu time      0.0232: real time      0.0234
    MIXING:  cpu time      0.0042: real time      0.0042
    --------------------------------------------
      LOOP:  cpu time      0.8798: real time      0.8850

 eigenvalue-minimisations  :    48
 total energy-change (2. order) :-0.1173021E-02  (-0.2647381E-03)
 number of electron       5.9999999 magnetization       2.0000000
 augmentation part       -1.1365284 magnetization      -0.1574667

 Broyden mixing:
  rms(total) = 0.14040E-01    rms(broyden)= 0.14040E-01
  rms(prec ) = 0.14277E-01
  weight for this iteration     100.00

 eigenvalues of (default mixing * dielectric matrix)
  average eigenvalue GAMMA=   0.7165
  0.7539  0.6792

 Free energy of the ion-electron system (eV)
  ---------------------------------------------------
  alpha Z        PSCENC =         0.10128913
  Ewald energy   TEWEN  =       -48.70163197
  -Hartree energ DENC   =      -160.51327177
  -exchange      EXHF   =         0.00000000
  -V(xc)+E(xc)   XCENC  =        -1.54118821
  PAW double counting   =       213.79614856     -200.00279176
  entropy T*S    EENTRO =        -0.03856554
  eigenvalues    EBANDS =       -61.02967420
  atomic energy  EATOM  =       257.12785820
  Solvation  Ediel_sol  =         0.00000000
  ---------------------------------------------------
  free energy    TOTEN  =        -0.80182756 eV

  energy without entropy =       -0.76326201  energy(sigma->0) =       -0.78254479


--------------------------------------------------------------------------------------------------------




--------------------------------------- Iteration      1(   8)  ---------------------------------------


    POTLOK:  cpu time      0.3216: real time      0.3237
    SETDIJ:  cpu time      0.4714: real time      0.4736
     EDDAV:  cpu time      0.0519: real time      0.0523
       DOS:  cpu time      0.0004: real time      0.0004
    CHARGE:  cpu time      0.0274: real time      0.0276
    MIXING:  cpu time      0.0055: real time      0.0055
    --------------------------------------------
      LOOP:  cpu time      0.8783: real time      0.8831

 eigenvalue-minimisations  :    48
 total energy-change (2. order) :-0.4452449E-03  (-0.1994046E-04)
 number of electron       5.9999999 magnetization       2.0000000
 augmentation part       -1.1362010 magnetization      -0.1574813

 Broyden mixing:
  rms(total) = 0.79473E-02    rms(broyden)= 0.79473E-02
  rms(prec ) = 0.81652E-02
  weight for this iteration     100.00

 eigenvalues of (default mixing * dielectric matrix)
  average eigenvalue GAMMA=   1.0179
  1.6762  0.7528  0.6246

 Free energy of the ion-electron system (eV)
  ---------------------------------------------------
  alpha Z        PSCENC =         0.10128913
  Ewald energy   TEWEN  =       -48.70163197
  -Hartree energ DENC   =      -160.56706004
  -exchange      EXHF   =         0.00000000
  -V(xc)+E(xc)   XCENC  =        -1.53645351
  PAW double counting   =       215.17444147     -201.38618451
  entropy T*S    EENTRO =        -0.03856429
  eigenvalues    EBANDS =       -60.97596729
  atomic energy  EATOM  =       257.12785820
  Solvation  Ediel_sol  =         0.00000000
  ---------------------------------------------------
  free energy    TOTEN  =        -0.80227280 eV

  energy without entropy =       -0.76370852  energy(sigma->0) =       -0.78299066


--------------------------------------------------------------------------------------------------------




--------------------------------------- Iteration      1(   9)  ---------------------------------------


    POTLOK:  cpu time      0.3511: real time      0.3533
    SETDIJ:  cpu time      0.4706: real time      0.4730
     EDDAV:  cpu time      0.0457: real time      0.0460
       DOS:  cpu time      0.0004: real time      0.0004
    CHARGE:  cpu time      0.0235: real time      0.0236
    MIXING:  cpu time      0.0047: real time      0.0047
    --------------------------------------------
      LOOP:  cpu time      0.8959: real time      0.9010

 eigenvalue-minimisations  :    40
 total energy-change (2. order) :-0.5798009E-04  (-0.3307553E-04)
 number of electron       5.9999999 magnetization       2.0000000
 augmentation part       -1.1357838 magnetization      -0.1573566

 Broyden mixing:
  rms(total) = 0.17878E-01    rms(broyden)= 0.17878E-01
  rms(prec ) = 0.19638E-01
  weight for this iteration     100.00

 eigenvalues of (default mixing * dielectric matrix)
  average eigenvalue GAMMA=   0.8006
  1.7173  0.7519  0.6263  0.1069

 Free energy of the ion-electron system (eV)
  ---------------------------------------------------
  alpha Z        PSCENC =         0.10128913
  Ewald energy   TEWEN  =       -48.70163197
  -Hartree energ DENC   =      -160.65507453
  -exchange      EXHF   =         0.00000000
  -V(xc)+E(xc)   XCENC  =        -1.53020061
  PAW double counting   =       217.58255626     -203.79361138
  entropy T*S    EENTRO =        -0.03840902
  eigenvalues    EBANDS =       -60.89510687
  atomic energy  EATOM  =       257.12785820
  Solvation  Ediel_sol  =         0.00000000
  ---------------------------------------------------
  free energy    TOTEN  =        -0.80233078 eV

  energy without entropy =       -0.76392176  energy(sigma->0) =       -0.78312627


--------------------------------------------------------------------------------------------------------




--------------------------------------- Iteration      1(  10)  ---------------------------------------


    POTLOK:  cpu time      0.3224: real time      0.3248
    SETDIJ:  cpu time      0.4718: real time      0.4740
     EDDAV:  cpu time      0.0457: real time      0.0461
       DOS:  cpu time      0.0004: real time      0.0004
    CHARGE:  cpu time      0.0235: real time      0.0236
    MIXING:  cpu time      0.0050: real time      0.0051
    --------------------------------------------
      LOOP:  cpu time      0.8688: real time      0.8740

 eigenvalue-minimisations  :    40
 total energy-change (2. order) : 0.2227852E-03  (-0.4459416E-05)
 number of electron       5.9999999 magnetization       2.0000000
 augmentation part       -1.1357617 magnetization      -0.1573370

 Broyden mixing:
  rms(total) = 0.53014E-02    rms(broyden)= 0.53013E-02
  rms(prec ) = 0.57769E-02
  weight for this iteration     100.00

 eigenvalues of (default mixing * dielectric matrix)
  average eigenvalue GAMMA=   0.9636
  2.4120  0.8866  0.7110  0.6422  0.1664

 Free energy of the ion-electron system (eV)
  ---------------------------------------------------
  alpha Z        PSCENC =         0.10128913
  Ewald energy   TEWEN  =       -48.70163197
  -Hartree energ DENC   =      -160.65596215
  -exchange      EXHF   =         0.00000000
  -V(xc)+E(xc)   XCENC  =        -1.53013158
  PAW double counting   =       217.61021196     -203.82124177
  entropy T*S    EENTRO =        -0.03855430
  eigenvalues    EBANDS =       -60.89394552
  atomic energy  EATOM  =       257.12785820
  Solvation  Ediel_sol  =         0.00000000
  ---------------------------------------------------
  free energy    TOTEN  =        -0.80210800 eV

  energy without entropy =       -0.76355370  energy(sigma->0) =       -0.78283085


--------------------------------------------------------------------------------------------------------




--------------------------------------- Iteration      1(  11)  ---------------------------------------


    POTLOK:  cpu time      0.3376: real time      0.3400
    SETDIJ:  cpu time      0.4703: real time      0.4726
     EDDAV:  cpu time      0.0412: real time      0.0415
       DOS:  cpu time      0.0004: real time      0.0004
    CHARGE:  cpu time      0.0227: real time      0.0229
    MIXING:  cpu time      0.0049: real time      0.0049
    --------------------------------------------
      LOOP:  cpu time      0.8771: real time      0.8823

 eigenvalue-minimisations  :    32
 total energy-change (2. order) :-0.2767352E-03  (-0.1522456E-04)
 number of electron       5.9999999 magnetization       2.0000000
 augmentation part       -1.1356931 magnetization      -0.1573282

 Broyden mixing:
  rms(total) = 0.23534E-02    rms(broyden)= 0.23533E-02
  rms(prec ) = 0.26106E-02
  weight for this iteration     100.00

 eigenvalues of (default mixing * dielectric matrix)
  average eigenvalue GAMMA=   0.8677
  2.4555  0.9132  0.7153  0.6393  0.1663  0.3165

 Free energy of the ion-electron system (eV)
  ---------------------------------------------------
  alpha Z        PSCENC =         0.10128913
  Ewald energy   TEWEN  =       -48.70163197
  -Hartree energ DENC   =      -160.68226163
  -exchange      EXHF   =         0.00000000
  -V(xc)+E(xc)   XCENC  =        -1.52795194
  PAW double counting   =       218.34168891     -204.55286383
  entropy T*S    EENTRO =        -0.03856317
  eigenvalues    EBANDS =       -60.86994844
  atomic energy  EATOM  =       257.12785820
  Solvation  Ediel_sol  =         0.00000000
  ---------------------------------------------------
  free energy    TOTEN  =        -0.80238473 eV

  energy without entropy =       -0.76382156  energy(sigma->0) =       -0.78310315


--------------------------------------------------------------------------------------------------------




--------------------------------------- Iteration      1(  12)  ---------------------------------------


    POTLOK:  cpu time      0.3250: real time      0.3275
    SETDIJ:  cpu time      0.4707: real time      0.4729
     EDDAV:  cpu time      0.0580: real time      0.0586
       DOS:  cpu time      0.0004: real time      0.0004
    CHARGE:  cpu time      0.0227: real time      0.0228
    MIXING:  cpu time      0.0050: real time      0.0051
    --------------------------------------------
      LOOP:  cpu time      0.8818: real time      0.8873

 eigenvalue-minimisations  :    56
 total energy-change (2. order) :-0.1024262E-03  (-0.4620011E-06)
 number of electron       5.9999999 magnetization       2.0000000
 augmentation part       -1.1356872 magnetization      -0.1573436

 Broyden mixing:
  rms(total) = 0.54060E-02    rms(broyden)= 0.54060E-02
  rms(prec ) = 0.59560E-02
  weight for this iteration     100.00

 eigenvalues of (default mixing * dielectric matrix)
  average eigenvalue GAMMA=   0.8529
  2.6042  1.0471  0.7377  0.6250  0.6250  0.1662  0.1653

 Free energy of the ion-electron system (eV)
  ---------------------------------------------------
  alpha Z        PSCENC =         0.10128913
  Ewald energy   TEWEN  =       -48.70163197
  -Hartree energ DENC   =      -160.68323588
  -exchange      EXHF   =         0.00000000
  -V(xc)+E(xc)   XCENC  =        -1.52790152
  PAW double counting   =       218.34785657     -204.55891335
  entropy T*S    EENTRO =        -0.03855123
  eigenvalues    EBANDS =       -60.86925711
  atomic energy  EATOM  =       257.12785820
  Solvation  Ediel_sol  =         0.00000000
  ---------------------------------------------------
  free energy    TOTEN  =        -0.80248716 eV

  energy without entropy =       -0.76393593  energy(sigma->0) =       -0.78321154


--------------------------------------------------------------------------------------------------------




--------------------------------------- Iteration      1(  13)  ---------------------------------------


    POTLOK:  cpu time      0.3952: real time      0.3979
    SETDIJ:  cpu time      0.4705: real time      0.4728
     EDDAV:  cpu time      0.0389: real time      0.0392
       DOS:  cpu time      0.0004: real time      0.0004
    CHARGE:  cpu time      0.0226: real time      0.0228
    MIXING:  cpu time      0.0076: real time      0.0077
    --------------------------------------------
      LOOP:  cpu time      0.9352: real time      0.9407

 eigenvalue-minimisations  :    32
 total energy-change (2. order) :-0.1388330E-03  (-0.1336297E-05)
 number of electron       5.9999999 magnetization       2.0000000
 augmentation part       -1.1356975 magnetization      -0.1573520

 Broyden mixing:
  rms(total) = 0.45318E-03    rms(broyden)= 0.45305E-03
  rms(prec ) = 0.62736E-03
  weight for this iteration     100.00

 eigenvalues of (default mixing * dielectric matrix)
  average eigenvalue GAMMA=   0.9150
  2.5520  1.5925  0.8761  0.7261  0.6202  0.6202  0.1656  0.1676

 Free energy of the ion-electron system (eV)
  ---------------------------------------------------
  alpha Z        PSCENC =         0.10128913
  Ewald energy   TEWEN  =       -48.70163197
  -Hartree energ DENC   =      -160.68661002
  -exchange      EXHF   =         0.00000000
  -V(xc)+E(xc)   XCENC  =        -1.52764441
  PAW double counting   =       218.39826861     -204.60904927
  entropy T*S    EENTRO =        -0.03856556
  eigenvalues    EBANDS =       -60.86654071
  atomic energy  EATOM  =       257.12785820
  Solvation  Ediel_sol  =         0.00000000
  ---------------------------------------------------
  free energy    TOTEN  =        -0.80262599 eV

  energy without entropy =       -0.76406043  energy(sigma->0) =       -0.78334321


--------------------------------------------------------------------------------------------------------




--------------------------------------- Iteration      1(  14)  ---------------------------------------


    POTLOK:  cpu time      0.3455: real time      0.3479
    SETDIJ:  cpu time      0.4703: real time      0.4725
     EDDAV:  cpu time      0.0439: real time      0.0442
       DOS:  cpu time      0.0005: real time      0.0006
    CHARGE:  cpu time      0.0222: real time      0.0224
    MIXING:  cpu time      0.0055: real time      0.0055
    --------------------------------------------
      LOOP:  cpu time      0.8878: real time      0.8931

 eigenvalue-minimisations  :    40
 total energy-change (2. order) :-0.1620472E-03  (-0.1528202E-05)
 number of electron       5.9999999 magnetization       2.0000000
 augmentation part       -1.1357477 magnetization      -0.1573853

 Broyden mixing:
  rms(total) = 0.21094E-03    rms(broyden)= 0.21092E-03
  rms(prec ) = 0.37570E-03
  weight for this iteration     100.00

 eigenvalues of (default mixing * dielectric matrix)
  average eigenvalue GAMMA=   0.9595
  2.2480  2.2480  1.0600  0.7946  0.7011  0.6296  0.6214  0.1678  0.1653

 Free energy of the ion-electron system (eV)
  ---------------------------------------------------
  alpha Z        PSCENC =         0.10128913
  Ewald energy   TEWEN  =       -48.70163197
  -Hartree energ DENC   =      -160.68981576
  -exchange      EXHF   =         0.00000000
  -V(xc)+E(xc)   XCENC  =        -1.52729306
  PAW double counting   =       218.33260870     -204.54321431
  entropy T*S    EENTRO =        -0.03856557
  eigenvalues    EBANDS =       -60.86402340
  atomic energy  EATOM  =       257.12785820
  Solvation  Ediel_sol  =         0.00000000
  ---------------------------------------------------
  free energy    TOTEN  =        -0.80278804 eV

  energy without entropy =       -0.76422247  energy(sigma->0) =       -0.78350525


--------------------------------------------------------------------------------------------------------




--------------------------------------- Iteration      1(  15)  ---------------------------------------


    POTLOK:  cpu time      0.4038: real time      0.4069
    SETDIJ:  cpu time      0.4701: real time      0.4724
     EDDAV:  cpu time      0.0391: real time      0.0394
       DOS:  cpu time      0.0004: real time      0.0004
    CHARGE:  cpu time      0.0228: real time      0.0230
    MIXING:  cpu time      0.0054: real time      0.0055
    --------------------------------------------
      LOOP:  cpu time      0.9417: real time      0.9476

 eigenvalue-minimisations  :    32
 total energy-change (2. order) :-0.7023176E-04  (-0.1380075E-06)
 number of electron       5.9999999 magnetization       2.0000000
 augmentation part       -1.1357515 magnetization      -0.1573848

 Broyden mixing:
  rms(total) = 0.42913E-03    rms(broyden)= 0.42913E-03
  rms(prec ) = 0.52140E-03
  weight for this iteration     100.00

 eigenvalues of (default mixing * dielectric matrix)
  average eigenvalue GAMMA=   0.8702
  2.2503  2.2503  1.0622  0.7958  0.7022  0.6290  0.6215  0.1678  0.1653  0.0575

 Free energy of the ion-electron system (eV)
  ---------------------------------------------------
  alpha Z        PSCENC =         0.10128913
  Ewald energy   TEWEN  =       -48.70163197
  -Hartree energ DENC   =      -160.69647211
  -exchange      EXHF   =         0.00000000
  -V(xc)+E(xc)   XCENC  =        -1.52703264
  PAW double counting   =       218.28493764     -204.49545175
  entropy T*S    EENTRO =        -0.03856549
  eigenvalues    EBANDS =       -60.85778928
  atomic energy  EATOM  =       257.12785820
  Solvation  Ediel_sol  =         0.00000000
  ---------------------------------------------------
  free energy    TOTEN  =        -0.80285827 eV

  energy without entropy =       -0.76429278  energy(sigma->0) =       -0.78357552


--------------------------------------------------------------------------------------------------------




--------------------------------------- Iteration      1(  16)  ---------------------------------------


    POTLOK:  cpu time      0.3160: real time      0.3184
    SETDIJ:  cpu time      0.4695: real time      0.4717
     EDDAV:  cpu time      0.0520: real time      0.0524
       DOS:  cpu time      0.0004: real time      0.0004
    --------------------------------------------
      LOOP:  cpu time      0.8379: real time      0.8428

 eigenvalue-minimisations  :    48
 total energy-change (2. order) :-0.4360504E-06  (-0.1807465E-08)
 number of electron       5.9999999 magnetization       2.0000000
 augmentation part       -1.1357515 magnetization      -0.1573848

 Free energy of the ion-electron system (eV)
  ---------------------------------------------------
  alpha Z        PSCENC =         0.10128913
  Ewald energy   TEWEN  =       -48.70163197
  -Hartree energ DENC   =      -160.69656803
  -exchange      EXHF   =         0.00000000
  -V(xc)+E(xc)   XCENC  =        -1.52702886
  PAW double counting   =       218.28496738     -204.49548153
  entropy T*S    EENTRO =        -0.03856547
  eigenvalues    EBANDS =       -60.85769756
  atomic energy  EATOM  =       257.12785820
  Solvation  Ediel_sol  =         0.00000000
  ---------------------------------------------------
  free energy    TOTEN  =        -0.80285871 eV

  energy without entropy =       -0.76429324  energy(sigma->0) =       -0.78357597


--------------------------------------------------------------------------------------------------------




 average (electrostatic) potential at core
  the test charge radii are     1.0808
  (the norm of the test charge is              1.0000)
       1 -63.6613
 
 
 
 E-fermi :  -5.5606     XC(G=0):  -0.3233     alpha+bet : -0.0624

 Fermi energy:        -5.5605748996

 spin component 1

 k-point     1 :       0.0000    0.0000    0.0000
  band No.  band energies     occupation 
      1     -17.8414      1.00000
      2      -7.0570      1.00000
      3      -7.0569      1.00000
      4      -7.0567      1.00000
      5      -0.5612      0.00000
      6       0.2322      0.00000
      7       0.3979      0.00000
      8       0.4040      0.00000
 Fermi energy:        -5.5605748996

 spin component 2

 k-point     1 :       0.0000    0.0000    0.0000
  band No.  band energies     occupation 
      1     -16.3004      1.00000
      2      -5.5455      0.33454
      3      -5.5453      0.33298
      4      -5.5453      0.33248
      5      -0.3551      0.00000
      6       0.2946      0.00000
      7       0.4588      0.00000
      8       0.4666      0.00000


--------------------------------------------------------------------------------------------------------


 soft charge-density along one line, spin component           1
         0         1         2         3         4         5         6         7         8         9
 total charge-density along one line
 
 soft charge-density along one line, spin component           2
         0         1         2         3         4         5         6         7         8         9
 total charge-density along one line
 
 pseudopotential strength for first ion, spin component:           1
 32.022  36.444   0.000  -0.000   0.000   0.000  -0.000   0.000
 36.444  41.483   0.000  -0.000   0.000   0.000  -0.000   0.000
  0.000   0.000   7.486  -0.000   0.000  10.559  -0.000   0.000
 -0.000  -0.000  -0.000   7.486   0.000  -0.000  10.559   0.000
  0.000   0.000   0.000   0.000   7.486   0.000   0.000  10.559
  0.000   0.000  10.559  -0.000   0.000  14.928  -0.000   0.000
 -0.000  -0.000  -0.000  10.559   0.000  -0.000  14.928   0.000
  0.000   0.000   0.000   0.000  10.559   0.000   0.000  14.928
  0.000   0.000   0.000   0.000   0.000   0.000   0.000   0.000
 -0.000  -0.000  -0.000   0.000   0.000  -0.000   0.000   0.000
  0.000   0.000  -0.000  -0.000  -0.000  -0.000  -0.000  -0.000
  0.000   0.000   0.000   0.000  -0.000   0.000   0.000  -0.000
 -0.000  -0.000  -0.000   0.000   0.000  -0.000   0.000   0.000
 pseudopotential strength for first ion, spin component:           2
 31.894  36.304  -0.000  -0.000   0.000  -0.000  -0.000   0.000
 36.304  41.329  -0.000  -0.000   0.000  -0.000  -0.000   0.000
 -0.000  -0.000   7.354   0.000  -0.000  10.373   0.000  -0.000
 -0.000  -0.000   0.000   7.354  -0.000   0.000  10.373  -0.000
  0.000   0.000  -0.000  -0.000   7.354  -0.000  -0.000  10.373
 -0.000  -0.000  10.373   0.000  -0.000  14.664   0.000  -0.000
 -0.000  -0.000   0.000  10.373  -0.000   0.000  14.664  -0.000
  0.000   0.000  -0.000  -0.000  10.373  -0.000  -0.000  14.664
 -0.000  -0.000  -0.000  -0.000  -0.000  -0.000  -0.000  -0.000
  0.000   0.000   0.000   0.000  -0.000   0.000   0.000  -0.000
 -0.000  -0.000   0.000   0.000  -0.000   0.000   0.000  -0.000
 -0.000  -0.000  -0.000  -0.000  -0.000  -0.000  -0.000  -0.000
 -0.000  -0.000  -0.000  -0.000   0.000  -0.000  -0.000   0.000
 total augmentation occupancy for first ion, spin component:           1
  2.229  -0.228  -0.000  -0.000   0.000  -0.000   0.000  -0.000   0.000   0.000   0.000   0.000  -0.000
 -0.228   0.226   0.000   0.000  -0.000   0.000  -0.000   0.000  -0.000  -0.000  -0.000  -0.000   0.000
 -0.000   0.000   1.418  -0.000  -0.001  -0.029  -0.000  -0.000   0.000  -0.000  -0.000   0.000  -0.000
 -0.000   0.000  -0.000   1.418  -0.000  -0.000  -0.029   0.000   0.000   0.000  -0.000   0.000   0.000
  0.000  -0.000  -0.001  -0.000   1.419  -0.000   0.000  -0.029   0.000   0.000  -0.000  -0.000   0.000
 -0.000   0.000  -0.029  -0.000  -0.000   0.003   0.000   0.000  -0.000   0.000   0.000  -0.000   0.000
  0.000  -0.000  -0.000  -0.029   0.000   0.000   0.003  -0.000  -0.000  -0.000   0.000  -0.000   0.000
 -0.000   0.000  -0.000   0.000  -0.029   0.000  -0.000   0.003  -0.000  -0.000   0.000   0.000  -0.000
  0.000  -0.000   0.000   0.000   0.000  -0.000  -0.000  -0.000   0.000   0.000   0.000   0.000  -0.000
  0.000  -0.000  -0.000   0.000   0.000   0.000  -0.000  -0.000   0.000   0.000   0.000   0.000  -0.000
  0.000  -0.000  -0.000  -0.000  -0.000   0.000   0.000   0.000   0.000   0.000   0.000   0.000  -0.000
  0.000  -0.000   0.000   0.000  -0.000  -0.000  -0.000   0.000   0.000   0.000   0.000   0.000  -0.000
 -0.000   0.000  -0.000   0.000   0.000   0.000   0.000  -0.000  -0.000  -0.000  -0.000  -0.000   0.000
 total augmentation occupancy for first ion, spin component:           2
  1.495  -0.652  -0.000  -0.000   0.000  -0.000   0.000  -0.000   0.000   0.000   0.000   0.000  -0.000
 -0.652  -0.018   0.000   0.000  -0.000  -0.000  -0.000  -0.000  -0.000  -0.000  -0.000   0.000   0.000
 -0.000   0.000   0.854   0.000   0.001  -0.060  -0.000   0.000   0.000  -0.000  -0.000   0.000  -0.000
 -0.000   0.000   0.000   0.855   0.000  -0.000  -0.060   0.000   0.000   0.000  -0.000   0.000  -0.000
  0.000  -0.000   0.001   0.000   0.853   0.000   0.000  -0.060   0.000   0.000  -0.000  -0.000   0.000
 -0.000  -0.000  -0.060  -0.000   0.000   0.001   0.000   0.000  -0.000   0.000   0.000  -0.000   0.000
  0.000  -0.000  -0.000  -0.060   0.000   0.000   0.001  -0.000   0.000  -0.000   0.000  -0.000  -0.000
 -0.000  -0.000   0.000   0.000  -0.060   0.000  -0.000   0.001  -0.000  -0.000   0.000   0.000  -0.000
  0.000  -0.000   0.000   0.000   0.000  -0.000   0.000  -0.000   0.000   0.000   0.000   0.000  -0.000
  0.000  -0.000  -0.000   0.000   0.000   0.000  -0.000  -0.000   0.000   0.000   0.000   0.000  -0.000
  0.000  -0.000  -0.000  -0.000  -0.000   0.000   0.000   0.000   0.000   0.000   0.000   0.000  -0.000
  0.000   0.000   0.000   0.000  -0.000  -0.000  -0.000   0.000   0.000   0.000   0.000  -0.000  -0.000
 -0.000   0.000  -0.000  -0.000   0.000   0.000  -0.000  -0.000  -0.000  -0.000  -0.000  -0.000   0.000


------------------------ aborting loop because EDIFF is reached ----------------------------------------


    CHARGE:  cpu time      0.0231: real time      0.0233
    FORLOC:  cpu time      0.0020: real time      0.0020
    FORNL :  cpu time      0.0052: real time      0.0052
    STRESS:  cpu time      0.0184: real time      0.0185
    FORCOR:  cpu time      0.3699: real time      0.3721
    FORHAR:  cpu time      0.0306: real time      0.0308
    MIXING:  cpu time      0.0059: real time      0.0060
    OFIELD:  cpu time      0.0000: real time      0.0000

  FORCE on cell =-STRESS in cart. coord.  units (eV):
  Direction    XX          YY          ZZ          XY          YZ          ZX
  --------------------------------------------------------------------------------------
  Alpha Z     0.10129     0.10129     0.10129
  Ewald     -15.90623   -16.23417   -16.56123     0.00000     0.00000     0.00000
  Hartree    53.89714    53.57437    53.24990    -0.00523    -0.00066    -0.00037
  E(xc)     -21.43859   -21.43805   -21.43725     0.00064     0.00008     0.00004
  Local    -122.12548  -121.46153  -120.78964     0.02117     0.00266     0.00151
  n-local    40.73097    40.72729    40.72170    -0.00435    -0.00055    -0.00031
  augment    -4.23905    -4.23818    -4.23704     0.00096     0.00012     0.00007
  Kinetic    68.98130    68.97263    68.95929    -0.01043    -0.00130    -0.00073
  Fock        0.00000     0.00000     0.00000     0.00000     0.00000     0.00000
  -------------------------------------------------------------------------------------
  Total       0.00136     0.00366     0.00701     0.00275     0.00035     0.00021
  in kB       0.00063     0.00170     0.00326     0.00128     0.00016     0.00010
  external pressure =        0.00 kB  Pullay stress =        0.00 kB


 VOLUME and BASIS-vectors are now :
 -----------------------------------------------------------------------------
  energy-cutoff  :      520.00
  volume of cell :     3442.80
      direct lattice vectors                 reciprocal lattice vectors
    15.000000000  0.000000000  0.000000000     0.066666667 -0.000000000  0.000000000
     0.000000000 15.100000000  0.000000000     0.000000000  0.066225166  0.000000000
     0.000000000  0.000000000 15.200000000    -0.000000000 -0.000000000  0.065789474

  length of vectors
    15.000000000 15.100000000 15.200000000     0.066666667  0.066225166  0.065789474


 FORCES acting on ions
    electron-ion (+dipol)            ewald-force                    non-local-force                 convergence-correction
 -----------------------------------------------------------------------------------------------
   0.899E-05 0.173E-05 -.320E-05   -.313E-16 0.437E-17 0.134E-16   -.310E-05 -.730E-06 0.844E-06   -.608E-05 -.103E-05 0.247E-05
 -----------------------------------------------------------------------------------------------
   0.899E-05 0.173E-05 -.320E-05   -.313E-16 0.437E-17 0.134E-16   -.310E-05 -.730E-06 0.844E-06   -.608E-05 -.103E-05 0.247E-05
 
 
 POSITION                                       TOTAL-FORCE (eV/Angst)
 -----------------------------------------------------------------------------------
      0.00000      0.00000      0.00000        -0.000000     -0.000000      0.000000
 -----------------------------------------------------------------------------------
    total drift:                               -0.000000     -0.000000      0.000000


--------------------------------------------------------------------------------------------------------



  FREE ENERGIE OF THE ION-ELECTRON SYSTEM (eV)
  ---------------------------------------------------
  free  energy   TOTEN  =        -0.80285871 eV

  energy  without entropy=       -0.76429324  energy(sigma->0) =       -0.78357597
 


--------------------------------------------------------------------------------------------------------


    POTLOK:  cpu time      0.7946: real time      0.7991


--------------------------------------------------------------------------------------------------------


     LOOP+:  cpu time     12.6320: real time     12.7094
    4ORBIT:  cpu time      0.0000: real time      0.0000

 total amount of memory used by VASP MPI-rank0    58423. kBytes
=======================================================================

   base      :      30000. kBytes
   nonl-proj :        174. kBytes
   fftplans  :       8156. kBytes
   grid      :      19898. kBytes
   one-center:          8. kBytes
   wavefun   :        187. kBytes
 
  
  
 General timing and accounting informations for this job:
 ========================================================
  
                  Total CPU time used (sec):       14.171
                            User time (sec):       12.906
                          System time (sec):        1.265
                         Elapsed time (sec):       14.820
  
                   Maximum memory used (kb):      446548.
                   Average memory used (kb):          N/A
  
                          Minor page faults:        71233
                          Major page faults:           38
                 Voluntary context switches:         1266
