 vasp.6.4.2 20Jul23 (build Aug 07 2024 12:45:50) gamma-only                     
  
 executed on             LinuxIFC date 2026.09.30  12:16:18
 running   64 mpi-ranks, on    1 nodes
 distrk:  each k-point on   64 cores,    1 groups
 distr:  one band on NCORE=  32 cores,    2 groups


--------------------------------------------------------------------------------------------------------


 INCAR:
   ALGO = Normal
   EDIFF = 1e-05
   EFERMI = Midgap
   ENCUT = 520.0
   GGA = Pe
   GGA_COMPAT = False
   IBRION = -1
   ISMEAR = 0
   ISPIN = 1
   ISYM = 0
   LAECHG = False
   LASPH = True
   LCHARG = False
   LMAXMIX = 6
   LMIXTAU = True
   LREAL = False
   LWAVE = False
   NCORE = 32
   NELM = 400
   NSW = 0
   PREC = Accurate
   SIGMA = 0.05
   SYSTEM = Cl_atom_ispin1

 POTCAR:    PAW_PBE Cl 06Sep2000                  
 -----------------------------------------------------------------------------
|                                                                             |
|           W    W    AA    RRRRR   N    N  II  N    N   GGGG   !!!           |
|           W    W   A  A   R    R  NN   N  II  NN   N  G    G  !!!           |
|           W    W  A    A  R    R  N N  N  II  N N  N  G       !!!           |
|           W WW W  AAAAAA  RRRRR   N  N N  II  N  N N  G  GGG   !            |
|           WW  WW  A    A  R   R   N   NN  II  N   NN  G    G                |
|           W    W  A    A  R    R  N    N  II  N    N   GGGG   !!!           |
|                                                                             |
|     For optimal performance we recommend to set                             |
|       NCORE = 2 up to number-of-cores-per-socket                            |
|     NCORE specifies how many cores store one orbital (NPAR=cpu/NCORE).      |
|     This setting can greatly improve the performance of VASP for DFT.       |
|     The default, NCORE=1 might be grossly inefficient on modern             |
|     multi-core architectures or massively parallel machines. Do your        |
|     own testing! More info at https://www.vasp.at/wiki/index.php/NCORE      |
|     Unfortunately you need to use the default for GW and RPA                |
|     calculations (for HF NCORE is supported but not extensively tested      |
|     yet).                                                                   |
|                                                                             |
 -----------------------------------------------------------------------------

 POTCAR:    PAW_PBE Cl 06Sep2000                  
   SHA256 =  9f1b6e6ed4247ac726a768b330d26d7667cc3c95a39ff49c1d064c2d9dcce931 Cl/POTCAR             
   COPYR  = (c) Copyright 06Sep2000 Georg Kresse                                                    
   COPYR  = This file is part of the software VASP. Any use, copying, and all other rights are regul
   COPYR  = If you do not have a valid VASP license, you may not use, copy or distribute this file. 
   VRHFIN =Cl: s2p5                                                                                 
   LEXCH  = PE                                                                                      
   EATOM  =   409.7259 eV,   30.1140 Ry                                                             
                                                                                                    
   TITEL  = PAW_PBE Cl 06Sep2000                                                                    
   LULTRA =        F    use ultrasoft PP ?                                                          
   IUNSCR =        1    unscreen: 0-lin 1-nonlin 2-no                                               
   RPACOR =    1.500    partial core radius                                                         
   POMASS =   35.453; ZVAL   =    7.000    mass and valenz                                          
   RCORE  =    1.900    outmost cutoff radius                                                       
   RWIGS  =    2.100; RWIGS  =    1.111    wigner-seitz radius (au A)                               
   ENMAX  =  262.472; ENMIN  =  196.854 eV                                                          
   ICORE  =        2    local potential                                                             
   LCOR   =        T    correct aug charges                                                         
   LPAW   =        T    paw PP                                                                      
   EAUG   =  356.192                                                                                
   DEXC   =    0.000                                                                                
   RMAX   =    1.945    core radius for proj-oper                                                   
   RAUG   =    1.300    factor for augmentation sphere                                              
   RDEP   =    2.020    radius for radial grids                                                     
   RDEPT  =    1.678    core radius for aug-charge                                                  
                                                                                                    
   Atomic configuration                                                                             
    6 entries                                                                                       
     n  l   j            E        occ.                                                              
     1  0  0.50     -2751.1850   2.0000                                                             
     2  0  0.50      -252.6861   2.0000                                                             
     2  1  1.50      -191.6157   6.0000                                                             
     3  0  0.50       -20.6916   2.0000                                                             
     3  1  0.50        -8.5949   5.0000                                                             
     3  2  1.50        -8.1635   0.0000                                                             
   Description                                                                                      
     l       E           TYP  RCUT    TYP  RCUT                                                     
     0    -20.6915656     23  1.900                                                                 
     0    -22.0521482     23  1.900                                                                 
     1     -8.5948577     23  1.900                                                                 
     1     -5.3847331     23  1.900                                                                 
     2     -8.1634956     23  1.900                                                                 
  local pseudopotential read in
  partial core-charges read in
  partial kinetic energy density read in
  atomic valenz-charges read in
  non local Contribution for L=           0  read in
    real space projection operators read in
  non local Contribution for L=           0  read in
    real space projection operators read in
  non local Contribution for L=           1  read in
    real space projection operators read in
  non local Contribution for L=           1  read in
    real space projection operators read in
    PAW grid and wavefunctions read in
 
   number of l-projection  operators is LMAX  =           4
   number of lm-projection operators is LMMAX =           8
 
  PAW_PBE Cl 06Sep2000                  :
 energy of atom  1       EATOM= -409.7259
 kinetic energy error for atom=    0.0023 (will be added to EATOM!!)
 
 
 POSCAR: Cl1
  positions in direct lattice
  No initial velocities read in
 exchange correlation table for  LEXCH =        8
   RHO(1)=    0.500       N(1)  =     2000
   RHO(2)=  100.500       N(2)  =     4000
 


--------------------------------------------------------------------------------------------------------


 ion  position               nearest neighbor table
   1  0.000  0.000  0.000-
 

IMPORTANT INFORMATION: All symmetrisations will be switched off!
NOSYMM: (Re-)initialisation of all symmetry stuff for point group C_1.


----------------------------------------------------------------------------------------

                                     Primitive cell                                     

  volume of cell :    3442.8000

  direct lattice vectors                    reciprocal lattice vectors
    15.000000000  0.000000000  0.000000000     0.066666667 -0.000000000  0.000000000
     0.000000000 15.100000000  0.000000000     0.000000000  0.066225166  0.000000000
     0.000000000  0.000000000 15.200000000    -0.000000000 -0.000000000  0.065789474

  length of vectors
    15.000000000 15.100000000 15.200000000     0.066666667  0.066225166  0.065789474

  position of ions in fractional coordinates (direct lattice)
     0.000000000  0.000000000  0.000000000

  ion indices of the primitive-cell ions
   primitive index   ion index
                 1           1

----------------------------------------------------------------------------------------

 
 
 KPOINTS: Automatic kpoint scheme                 

Automatic generation of k-mesh.
 Grid dimensions read from file:
 generate k-points for:    1    1    1

 Generating k-lattice:

  Cartesian coordinates                     Fractional coordinates (reciprocal lattice)
     0.066666667 -0.000000000  0.000000000     1.000000000 -0.000000000  0.000000000
     0.000000000  0.066225166  0.000000000     0.000000000  1.000000000  0.000000000
    -0.000000000 -0.000000000  0.065789474     0.000000000 -0.000000000  1.000000000

  Length of vectors
     0.066666667  0.066225166  0.065789474

  Shift w.r.t. Gamma in fractional coordinates (k-lattice)
     0.000000000  0.000000000  0.000000000

 
 Subroutine IBZKPT returns following result:
 ===========================================
 
 Found      1 irreducible k-points:
 
 Following reciprocal coordinates:
            Coordinates               Weight
  0.000000  0.000000  0.000000      1.000000
 
 Following cartesian coordinates:
            Coordinates               Weight
  0.000000  0.000000  0.000000      1.000000
 


--------------------------------------------------------------------------------------------------------




 Dimension of arrays:
   k-points           NKPTS =      1   k-points in BZ     NKDIM =      1   number of bands    NBANDS=      8
   number of dos      NEDOS =    301   number of ions     NIONS =      1
   non local maximal  LDIM  =      4   non local SUM 2l+1 LMDIM =      8
   total plane-waves  NPLWV = ******
   max r-space proj   IRMAX =      1   max aug-charges    IRDMAX=  12767
   dimension x,y,z NGX =   112 NGY =  112 NGZ =  120
   dimension x,y,z NGXF=   224 NGYF=  224 NGZF=  240
   support grid    NGXF=   224 NGYF=  224 NGZF=  240
   ions per type =               1
   NGX,Y,Z   is equivalent  to a cutoff of  12.41, 12.33, 13.12 a.u.
   NGXF,Y,Z  is equivalent  to a cutoff of  24.83, 24.66, 26.25 a.u.

 SYSTEM =  Cl_atom_ispin1                          
 POSCAR =  Cl1                                     

 Startparameter for this run:
   NWRITE =      2    write-flag & timer
   PREC   = accura    normal or accurate (medium, high low for compatibility)
   ISTART =      0    job   : 0-new  1-cont  2-samecut
   ICHARG =      2    charge: 1-file 2-atom 10-const
   ISPIN  =      1    spin polarized calculation?
   LNONCOLLINEAR =      F non collinear calculations
   LSORBIT =      F    spin-orbit coupling
   INIWAV =      1    electr: 0-lowe 1-rand  2-diag
   LASPH  =      T    aspherical Exc in radial PAW
 Electronic Relaxation 1
   ENCUT  =  520.0 eV  38.22 Ry    6.18 a.u.  27.89 28.08 28.26*2*pi/ulx,y,z
   ENINI  =  520.0     initial cutoff
   ENAUG  =  356.2 eV  augmentation charge cutoff
   NELM   =    400;   NELMIN=  2; NELMDL= -5     # of ELM steps 
   EDIFF  = 0.1E-04   stopping-criterion for ELM
   LREAL  =      F    real-space projection
   NLSPLINE    = F    spline interpolate recip. space projectors
   LCOMPAT=      F    compatible to vasp.4.4
   GGA_COMPAT  = F    GGA compatible to vasp.4.4-vasp.4.6
   LMAXPAW     = -100 max onsite density
   LMAXMIX     =    6 max onsite mixed and CHGCAR
   VOSKOWN=      0    Vosko Wilk Nusair interpolation
   ROPT   =    0.00000
 Ionic relaxation
   EDIFFG = 0.1E-03   stopping-criterion for IOM
   NSW    =      0    number of steps for IOM
   NBLOCK =      1;   KBLOCK =      1    inner block; outer block 
   IBRION =     -1    ionic relax: 0-MD 1-quasi-New 2-CG
   NFREE  =      0    steps in history (QN), initial steepest desc. (CG)
   ISIF   =      2    stress and relaxation
   IWAVPR =     10    prediction:  0-non 1-charg 2-wave 3-comb
   ISYM   =      0    0-nonsym 1-usesym 2-fastsym
   LCORR  =      T    Harris-Foulkes like correction to forces

   POTIM  = 0.5000    time-step for ionic-motion
   TEIN   =    0.0    initial temperature
   TEBEG  =    0.0;   TEEND  =   0.0 temperature during run
   SMASS  =  -3.00    Nose mass-parameter (am)
   estimated Nose-frequenzy (Omega)   =  0.10E-29 period in steps = 0.13E+47 mass=  -0.514E-26a.u.
   SCALEE = 1.0000    scale energy and forces
   NPACO  =    256;   APACO  = 10.0  distance and # of slots for P.C.
   PSTRESS=    0.0 pullay stress

  Mass of Ions in am
   POMASS =  35.45
  Ionic Valenz
   ZVAL   =   7.00
  Atomic Wigner-Seitz radii
   RWIGS  =  -1.00
  virtual crystal weights 
   VCA    =   1.00
   NELECT =       7.0000    total number of electrons
   NUPDOWN=      -1.0000    fix difference up-down

 DOS related values:
   EMIN   =  10.00;   EMAX   =-10.00  energy-range for DOS
   EFERMI =   0.00;   METHOD = MIDGAP      
   ISMEAR =     0;   SIGMA  =   0.05  broadening in eV -4-tet -1-fermi 0-gaus

 Electronic relaxation 2 (details)
   IALGO  =     38    algorithm
   LDIAG  =      T    sub-space diagonalisation (order eigenvalues)
   LSUBROT=      F    optimize rotation matrix (better conditioning)
   TURBO    =      0    0=normal 1=particle mesh
   IRESTART =      0    0=no restart 2=restart with 2 vectors
   NREBOOT  =      0    no. of reboots
   NMIN     =      0    reboot dimension
   EREF     =   0.00    reference energy to select bands
   IMIX   =      4    mixing-type and parameters
     AMIX     =   0.40;   BMIX     =  1.00
     AMIX_MAG =   1.60;   BMIX_MAG =  1.00
     AMIN     =   0.10
     WC   =   100.;   INIMIX=   1;  MIXPRE=   1;  MAXMIX= -45

 Intra band minimization:
   WEIMIN = 0.0000     energy-eigenvalue tresh-hold
   EBREAK =  0.31E-06  absolut break condition
   DEPER  =   0.30     relativ break condition  

   TIME   =   0.40     timestep for ELM

  volume/ion in A,a.u.               =    3442.80     23233.16
  Fermi-wavevector in a.u.,A,eV,Ry     =   0.207398  0.391925  0.585237  0.043014
  Thomas-Fermi vector in A             =   0.971082
 
 Write flags
   LWAVE        =      F    write WAVECAR
   LDOWNSAMPLE  =      F    k-point downsampling of WAVECAR
   LCHARG       =      F    write CHGCAR
   LVTOT        =      F    write LOCPOT, total local potential
   LVHAR        =      F    write LOCPOT, Hartree potential only
   LELF         =      F    write electronic localiz. function (ELF)
   LORBIT       =      0    0 simple, 1 ext, 2 COOP (PROOUT), +10 PAW based schemes


 Dipole corrections
   LMONO  =      F    monopole corrections only (constant potential shift)
   LDIPOL =      F    correct potential (dipole corrections)
   IDIPOL =      0    1-x, 2-y, 3-z, 4-all directions 
   EPSILON=  1.0000000 bulk dielectric constant

 Exchange correlation treatment:
   GGA     =    PE    GGA type
   LEXCH   =     8    internal setting for exchange type
   LIBXC   =     F    Libxc                    
   VOSKOWN =     0    Vosko Wilk Nusair interpolation
   LHFCALC =     F    Hartree Fock is set to
   LHFONE  =     F    Hartree Fock one center treatment
   AEXX    =    0.0000 exact exchange contribution

 Linear response parameters
   LEPSILON=     F    determine dielectric tensor
   LRPA    =     F    only Hartree local field effects (RPA)
   LNABLA  =     F    use nabla operator in PAW spheres
   LVEL    =     F    velocity operator in full k-point grid
   CSHIFT  =0.1000    complex shift for real part using Kramers Kronig
   OMEGAMAX=  -1.0    maximum frequency
   DEG_THRESHOLD= 0.2000000E-02 threshold for treating states as degnerate
   RTIME   =   -0.100 relaxation time in fs
  (WPLASMAI=    0.000 imaginary part of plasma frequency in eV, 0.658/RTIME)
   DFIELD  = 0.0000000 0.0000000 0.0000000 field for delta impulse in time
 
  Optional k-point grid parameters
   LKPOINTS_OPT  =     F    use optional k-point grid
   KPOINTS_OPT_MODE=     1    mode for optional k-point grid
 
 Orbital magnetization related:
   ORBITALMAG=     F  switch on orbital magnetization
   LCHIMAG   =     F  perturbation theory with respect to B field
   DQ        =  0.001000  dq finite difference perturbation B field
   LLRAUG    =     F  two centre corrections for induced B field
   LBONE     =     F  B-component reconstruction in AE one-centre
   LVGVCALC  =     T  calculate vGv susceptibility
   LVGVAPPL  =     F  apply vGv susceptibility instead of pGv for G=0

 Random number generation:
   RANDOM_GENERATOR = DEFAULT
   PCG_SEED         = not used


--------------------------------------------------------------------------------------------------------


 Static calculation
 charge density and potential will be updated during run
 non-spin polarized calculation
 Variant of blocked Davidson
 Davidson routine will perform the subspace rotation
 perform sub-space diagonalisation
    after iterative eigenvector-optimisation
 modified Broyden-mixing scheme, WC =      100.0
 initial mixing is a Kerker type mixing with AMIX =  0.4000 and BMIX =      1.0000
 Hartree-type preconditioning will be used
 using additional bands            4
 reciprocal scheme for non local part
 use partial core corrections
 calculate Harris-corrections to forces 
   (improved forces if not selfconsistent)
 use gradient corrections 
 use of overlap-Matrix (Vanderbilt PP)
 Gauss-broadening in eV      SIGMA  =   0.05


--------------------------------------------------------------------------------------------------------


  energy-cutoff  :      520.00
  volume of cell :     3442.80
      direct lattice vectors                 reciprocal lattice vectors
    15.000000000  0.000000000  0.000000000     0.066666667 -0.000000000  0.000000000
     0.000000000 15.100000000  0.000000000     0.000000000  0.066225166  0.000000000
     0.000000000  0.000000000 15.200000000    -0.000000000 -0.000000000  0.065789474

  length of vectors
    15.000000000 15.100000000 15.200000000     0.066666667  0.066225166  0.065789474


 
 k-points in units of 2pi/SCALE and weight: Automatic kpoint scheme                 
   0.00000000  0.00000000  0.00000000       1.000
 
 k-points in reciprocal lattice and weights: Automatic kpoint scheme                 
   0.00000000  0.00000000  0.00000000       1.000
 
 position of ions in fractional coordinates (direct lattice) 
   0.00000000  0.00000000  0.00000000
 
 position of ions in cartesian coordinates  (Angst):
   0.00000000  0.00000000  0.00000000
 


--------------------------------------------------------------------------------------------------------


 use parallel FFT for orbitals z direction half grid
 k-point   1 :   0.0000 0.0000 0.0000  plane waves:   46338

 maximum and minimum number of plane-waves per node :      1457     1434

 maximum number of plane-waves:     46338
 maximum index in each direction: 
   IXMAX=   27   IYMAX=   28   IZMAX=   28
   IXMIN=  -27   IYMIN=  -28   IZMIN=    0


 parallel 3D FFT for wavefunctions:
    minimum data exchange during FFTs selected (reduces bandwidth)
 parallel 3D FFT for charge:
    minimum data exchange during FFTs selected (reduces bandwidth)


 total amount of memory used by VASP MPI-rank0    50902. kBytes
=======================================================================

   base      :      30000. kBytes
   nonl-proj :        116. kBytes
   fftplans  :       8156. kBytes
   grid      :      12536. kBytes
   one-center:          1. kBytes
   wavefun   :         93. kBytes
 
     INWAV:  cpu time      0.0000: real time      0.0000
 Broyden mixing: mesh for mixing (old mesh)
   NGX = 55   NGY = 57   NGZ = 57
  (NGX  =224   NGY  =224   NGZ  =240)
  gives a total of 178695 points

 initial charge density was supplied:
 charge density of overlapping atoms calculated
 number of electron       7.0000000 magnetization 
 keeping initial charge density in first step


--------------------------------------------------------------------------------------------------------


 Maximum index for augmentation-charges          647 (set IRDMAX)


--------------------------------------------------------------------------------------------------------


 First call to EWALD:  gamma=   0.117
 Maximum number of real-space cells 3x 3x 3
 Maximum number of reciprocal cells 3x 3x 3

    FEWALD:  cpu time      0.0010: real time      0.0010


--------------------------------------- Ionic step        1  -------------------------------------------




--------------------------------------- Iteration      1(   1)  ---------------------------------------


    POTLOK:  cpu time      0.1253: real time      0.1261
    SETDIJ:  cpu time      0.0450: real time      0.0452
     EDDAV:  cpu time      0.0218: real time      0.0221
       DOS:  cpu time      0.0006: real time      0.0007
    --------------------------------------------
      LOOP:  cpu time      0.1927: real time      0.1942

 eigenvalue-minimisations  :    16
 total energy-change (2. order) : 0.5487457E+02  (-0.8777326E+02)
 number of electron       7.0000000 magnetization 
 augmentation part        7.0000000 magnetization 

 Free energy of the ion-electron system (eV)
  ---------------------------------------------------
  alpha Z        PSCENC =         0.06134537
  Ewald energy   TEWEN  =       -66.28833240
  -Hartree energ DENC   =      -278.70838876
  -exchange      EXHF   =         0.00000000
  -V(xc)+E(xc)   XCENC  =        19.27853160
  PAW double counting   =       325.27555732     -325.38929183
  entropy T*S    EENTRO =        -0.02820948
  eigenvalues    EBANDS =       -29.05019410
  atomic energy  EATOM  =       409.72355349
  Solvation  Ediel_sol  =         0.00000000
  ---------------------------------------------------
  free energy    TOTEN  =        54.87457121 eV

  energy without entropy =       54.90278069  energy(sigma->0) =       54.88867595


--------------------------------------------------------------------------------------------------------




--------------------------------------- Iteration      1(   2)  ---------------------------------------


     EDDAV:  cpu time      0.0193: real time      0.0201
       DOS:  cpu time      0.0004: real time      0.0004
    --------------------------------------------
      LOOP:  cpu time      0.0197: real time      0.0205

 eigenvalue-minimisations  :    16
 total energy-change (2. order) :-0.1237058E+02  (-0.1237058E+02)
 number of electron       7.0000000 magnetization 
 augmentation part        7.0000000 magnetization 

 Free energy of the ion-electron system (eV)
  ---------------------------------------------------
  alpha Z        PSCENC =         0.06134537
  Ewald energy   TEWEN  =       -66.28833240
  -Hartree energ DENC   =      -278.70838876
  -exchange      EXHF   =         0.00000000
  -V(xc)+E(xc)   XCENC  =        19.27853160
  PAW double counting   =       325.27555732     -325.38929183
  entropy T*S    EENTRO =        -0.02820948
  eigenvalues    EBANDS =       -41.42077754
  atomic energy  EATOM  =       409.72355349
  Solvation  Ediel_sol  =         0.00000000
  ---------------------------------------------------
  free energy    TOTEN  =        42.50398777 eV

  energy without entropy =       42.53219725  energy(sigma->0) =       42.51809251


--------------------------------------------------------------------------------------------------------




--------------------------------------- Iteration      1(   3)  ---------------------------------------


     EDDAV:  cpu time      0.0302: real time      0.0305
       DOS:  cpu time      0.0003: real time      0.0003
    --------------------------------------------
      LOOP:  cpu time      0.0306: real time      0.0309

 eigenvalue-minimisations  :    32
 total energy-change (2. order) :-0.3199430E+02  (-0.3199430E+02)
 number of electron       7.0000000 magnetization 
 augmentation part        7.0000000 magnetization 

 Free energy of the ion-electron system (eV)
  ---------------------------------------------------
  alpha Z        PSCENC =         0.06134537
  Ewald energy   TEWEN  =       -66.28833240
  -Hartree energ DENC   =      -278.70838876
  -exchange      EXHF   =         0.00000000
  -V(xc)+E(xc)   XCENC  =        19.27853160
  PAW double counting   =       325.27555732     -325.38929183
  entropy T*S    EENTRO =        -0.02820948
  eigenvalues    EBANDS =       -73.41507763
  atomic energy  EATOM  =       409.72355349
  Solvation  Ediel_sol  =         0.00000000
  ---------------------------------------------------
  free energy    TOTEN  =        10.50968767 eV

  energy without entropy =       10.53789715  energy(sigma->0) =       10.52379241


--------------------------------------------------------------------------------------------------------




--------------------------------------- Iteration      1(   4)  ---------------------------------------


     EDDAV:  cpu time      0.0181: real time      0.0182
       DOS:  cpu time      0.0004: real time      0.0004
    --------------------------------------------
      LOOP:  cpu time      0.0184: real time      0.0186

 eigenvalue-minimisations  :    16
 total energy-change (2. order) :-0.1016882E+02  (-0.1016880E+02)
 number of electron       7.0000000 magnetization 
 augmentation part        7.0000000 magnetization 

 Free energy of the ion-electron system (eV)
  ---------------------------------------------------
  alpha Z        PSCENC =         0.06134537
  Ewald energy   TEWEN  =       -66.28833240
  -Hartree energ DENC   =      -278.70838876
  -exchange      EXHF   =         0.00000000
  -V(xc)+E(xc)   XCENC  =        19.27853160
  PAW double counting   =       325.27555732     -325.38929183
  entropy T*S    EENTRO =        -0.02853070
  eigenvalues    EBANDS =       -83.58358011
  atomic energy  EATOM  =       409.72355349
  Solvation  Ediel_sol  =         0.00000000
  ---------------------------------------------------
  free energy    TOTEN  =         0.34086397 eV

  energy without entropy =        0.36939467  energy(sigma->0) =        0.35512932


--------------------------------------------------------------------------------------------------------




--------------------------------------- Iteration      1(   5)  ---------------------------------------


     EDDAV:  cpu time      0.0180: real time      0.0181
       DOS:  cpu time      0.0004: real time      0.0003
    CHARGE:  cpu time      0.0124: real time      0.0125
    MIXING:  cpu time      0.0030: real time      0.0031
    --------------------------------------------
      LOOP:  cpu time      0.0338: real time      0.0340

 eigenvalue-minimisations  :    16
 total energy-change (2. order) :-0.4057932E+00  (-0.3823846E+00)
 number of electron       7.0000001 magnetization 
 augmentation part       -0.9600827 magnetization 

 Broyden mixing:
  rms(total) = 0.11083E-01    rms(broyden)= 0.10975E-01
  rms(prec ) = 0.12436E-01
  weight for this iteration     100.00

 Free energy of the ion-electron system (eV)
  ---------------------------------------------------
  alpha Z        PSCENC =         0.06134537
  Ewald energy   TEWEN  =       -66.28833240
  -Hartree energ DENC   =      -278.70838876
  -exchange      EXHF   =         0.00000000
  -V(xc)+E(xc)   XCENC  =        19.27853160
  PAW double counting   =       325.27555732     -325.38929183
  entropy T*S    EENTRO =        -0.05298797
  eigenvalues    EBANDS =       -83.96491602
  atomic energy  EATOM  =       409.72355349
  Solvation  Ediel_sol  =         0.00000000
  ---------------------------------------------------
  free energy    TOTEN  =        -0.06492920 eV

  energy without entropy =       -0.01194123  energy(sigma->0) =       -0.03843522


--------------------------------------------------------------------------------------------------------




--------------------------------------- Iteration      1(   6)  ---------------------------------------


    POTLOK:  cpu time      0.1195: real time      0.1203
    SETDIJ:  cpu time      0.0444: real time      0.0446
     EDDAV:  cpu time      0.0245: real time      0.0247
       DOS:  cpu time      0.0004: real time      0.0004
    CHARGE:  cpu time      0.0120: real time      0.0121
    MIXING:  cpu time      0.0020: real time      0.0020
    --------------------------------------------
      LOOP:  cpu time      0.2028: real time      0.2041

 eigenvalue-minimisations  :    24
 total energy-change (2. order) :-0.6620420E-02  (-0.6751431E-02)
 number of electron       7.0000001 magnetization 
 augmentation part       -0.9610527 magnetization 

 Broyden mixing:
  rms(total) = 0.35914E-01    rms(broyden)= 0.35912E-01
  rms(prec ) = 0.39813E-01
  weight for this iteration     100.00

 eigenvalues of (default mixing * dielectric matrix)
  average eigenvalue GAMMA=   0.2068
  0.2068

 Free energy of the ion-electron system (eV)
  ---------------------------------------------------
  alpha Z        PSCENC =         0.06134537
  Ewald energy   TEWEN  =       -66.28833240
  -Hartree energ DENC   =      -278.54968326
  -exchange      EXHF   =         0.00000000
  -V(xc)+E(xc)   XCENC  =        19.26766250
  PAW double counting   =       324.98041814     -325.09103755
  entropy T*S    EENTRO =        -0.05270181
  eigenvalues    EBANDS =       -84.12277411
  atomic energy  EATOM  =       409.72355349
  Solvation  Ediel_sol  =         0.00000000
  ---------------------------------------------------
  free energy    TOTEN  =        -0.07154962 eV

  energy without entropy =       -0.01884781  energy(sigma->0) =       -0.04519872


--------------------------------------------------------------------------------------------------------




--------------------------------------- Iteration      1(   7)  ---------------------------------------


    POTLOK:  cpu time      0.1200: real time      0.1210
    SETDIJ:  cpu time      0.0443: real time      0.0445
     EDDAV:  cpu time      0.0245: real time      0.0247
       DOS:  cpu time      0.0004: real time      0.0004
    CHARGE:  cpu time      0.0116: real time      0.0117
    MIXING:  cpu time      0.0019: real time      0.0019
    --------------------------------------------
      LOOP:  cpu time      0.2027: real time      0.2042

 eigenvalue-minimisations  :    24
 total energy-change (2. order) : 0.3491978E-03  (-0.3441211E-04)
 number of electron       7.0000001 magnetization 
 augmentation part       -0.9610083 magnetization 

 Broyden mixing:
  rms(total) = 0.44929E-02    rms(broyden)= 0.44917E-02
  rms(prec ) = 0.50756E-02
  weight for this iteration     100.00

 eigenvalues of (default mixing * dielectric matrix)
  average eigenvalue GAMMA=   0.3959
  0.5732  0.2185

 Free energy of the ion-electron system (eV)
  ---------------------------------------------------
  alpha Z        PSCENC =         0.06134537
  Ewald energy   TEWEN  =       -66.28833240
  -Hartree energ DENC   =      -278.56677145
  -exchange      EXHF   =         0.00000000
  -V(xc)+E(xc)   XCENC  =        19.26884992
  PAW double counting   =       324.99058309     -325.10159215
  entropy T*S    EENTRO =        -0.05300116
  eigenvalues    EBANDS =       -84.10583513
  atomic energy  EATOM  =       409.72355349
  Solvation  Ediel_sol  =         0.00000000
  ---------------------------------------------------
  free energy    TOTEN  =        -0.07120042 eV

  energy without entropy =       -0.01819926  energy(sigma->0) =       -0.04469984


--------------------------------------------------------------------------------------------------------




--------------------------------------- Iteration      1(   8)  ---------------------------------------


    POTLOK:  cpu time      0.1261: real time      0.1272
    SETDIJ:  cpu time      0.0445: real time      0.0447
     EDDAV:  cpu time      0.0307: real time      0.0310
       DOS:  cpu time      0.0004: real time      0.0004
    --------------------------------------------
      LOOP:  cpu time      0.2016: real time      0.2032

 eigenvalue-minimisations  :    32
 total energy-change (2. order) : 0.3564825E-05  (-0.6257080E-05)
 number of electron       7.0000001 magnetization 
 augmentation part       -0.9610083 magnetization 

 Free energy of the ion-electron system (eV)
  ---------------------------------------------------
  alpha Z        PSCENC =         0.06134537
  Ewald energy   TEWEN  =       -66.28833240
  -Hartree energ DENC   =      -278.60981199
  -exchange      EXHF   =         0.00000000
  -V(xc)+E(xc)   XCENC  =        19.27162969
  PAW double counting   =       324.98787656     -325.09987672
  entropy T*S    EENTRO =        -0.05299906
  eigenvalues    EBANDS =       -84.06458180
  atomic energy  EATOM  =       409.72355349
  Solvation  Ediel_sol  =         0.00000000
  ---------------------------------------------------
  free energy    TOTEN  =        -0.07119686 eV

  energy without entropy =       -0.01819780  energy(sigma->0) =       -0.04469733


--------------------------------------------------------------------------------------------------------




 average (electrostatic) potential at core
  the test charge radii are     0.9406
  (the norm of the test charge is              1.0000)
       1-101.9629
 
 
 
 E-fermi :  -8.5183     XC(G=0):  -0.2082     alpha+bet : -0.0547

 Fermi energy:        -8.5182514534

 k-point     1 :       0.0000    0.0000    0.0000
  band No.  band energies     occupation 
      1     -20.6511      2.00000
      2      -8.5527      1.67048
      3      -8.5527      1.66946
      4      -8.5520      1.66006
      5      -0.3210      0.00000
      6       0.2562      0.00000
      7       0.5510      0.00000
      8       0.5582      0.00000


--------------------------------------------------------------------------------------------------------


 soft charge-density along one line, spin component           1
         0         1         2         3         4         5         6         7         8         9
 total charge-density along one line
 
 pseudopotential strength for first ion, spin component:           1
 50.810  53.324   0.000   0.000  -0.000   0.000   0.001  -0.000
 53.324  55.964   0.000   0.001  -0.000   0.000   0.001  -0.000
  0.000   0.000   9.460   0.000   0.000  11.721   0.000   0.000
  0.000   0.001   0.000   9.460  -0.000   0.000  11.721  -0.000
 -0.000  -0.000   0.000  -0.000   9.460   0.000  -0.000  11.721
  0.000   0.000  11.721   0.000   0.000  14.537   0.000   0.000
  0.001   0.001   0.000  11.721  -0.000   0.000  14.537  -0.000
 -0.000  -0.000   0.000  -0.000  11.721   0.000  -0.000  14.537
 total augmentation occupancy for first ion, spin component:           1
  2.049  -0.023  -0.000  -0.000   0.000   0.000   0.001  -0.000
 -0.023   0.000   0.000  -0.001   0.000  -0.000  -0.000   0.000
 -0.000   0.000   1.650  -0.002   0.000   0.007  -0.000   0.000
 -0.000  -0.001  -0.002   1.651   0.001  -0.000   0.007  -0.000
  0.000   0.000   0.000   0.001   1.650  -0.000  -0.000   0.007
  0.000  -0.000   0.007  -0.000  -0.000   0.000  -0.000   0.000
  0.001  -0.000  -0.000   0.007  -0.000  -0.000   0.000  -0.000
 -0.000   0.000   0.000  -0.000   0.007   0.000  -0.000   0.000


------------------------ aborting loop because EDIFF is reached ----------------------------------------


    CHARGE:  cpu time      0.0117: real time      0.0119
    FORLOC:  cpu time      0.0019: real time      0.0019
    FORNL :  cpu time      0.0006: real time      0.0006
    STRESS:  cpu time      0.0067: real time      0.0067
    FORCOR:  cpu time      0.1226: real time      0.1234
    FORHAR:  cpu time      0.0304: real time      0.0307
    MIXING:  cpu time      0.0021: real time      0.0021
    OFIELD:  cpu time      0.0000: real time      0.0000

  FORCE on cell =-STRESS in cart. coord.  units (eV):
  Direction    XX          YY          ZZ          XY          YZ          ZX
  --------------------------------------------------------------------------------------
  Alpha Z     0.06135     0.06135     0.06135
  Ewald     -21.65015   -22.09650   -22.54168     0.00000     0.00000     0.00000
  Hartree    93.39657    92.92570    92.46719     0.02011     0.04216    -0.02201
  E(xc)     -25.21646   -25.21551   -25.21515    -0.00033    -0.00080     0.00047
  Local    -222.40808  -221.37906  -220.40112    -0.08832    -0.18527     0.09644
  n-local    81.57677    81.54585    81.52500     0.01888     0.03953    -0.02044
  augment   -19.94025   -19.93497   -19.93170    -0.00329    -0.00689     0.00353
  Kinetic   114.22388   114.15691   114.11405     0.04034     0.08519    -0.04479
  Fock        0.00000     0.00000     0.00000     0.00000     0.00000     0.00000
  -------------------------------------------------------------------------------------
  Total       0.04361     0.06376     0.07795    -0.01262    -0.02608     0.01319
  in kB       0.02030     0.02967     0.03627    -0.00587    -0.01214     0.00614
  external pressure =        0.03 kB  Pullay stress =        0.00 kB


 VOLUME and BASIS-vectors are now :
 -----------------------------------------------------------------------------
  energy-cutoff  :      520.00
  volume of cell :     3442.80
      direct lattice vectors                 reciprocal lattice vectors
    15.000000000  0.000000000  0.000000000     0.066666667 -0.000000000  0.000000000
     0.000000000 15.100000000  0.000000000     0.000000000  0.066225166  0.000000000
     0.000000000  0.000000000 15.200000000    -0.000000000 -0.000000000  0.065789474

  length of vectors
    15.000000000 15.100000000 15.200000000     0.066666667  0.066225166  0.065789474


 FORCES acting on ions
    electron-ion (+dipol)            ewald-force                    non-local-force                 convergence-correction
 -----------------------------------------------------------------------------------------------
   -.554E-01 0.229E-01 0.108E+00   0.933E-17 0.909E-17 -.291E-17   0.239E-01 -.818E-02 -.490E-01   0.314E-01 -.148E-01 -.597E-01
 -----------------------------------------------------------------------------------------------
   -.554E-01 0.229E-01 0.108E+00   0.933E-17 0.909E-17 -.291E-17   0.239E-01 -.818E-02 -.490E-01   0.314E-01 -.148E-01 -.597E-01
 
 
 POSITION                                       TOTAL-FORCE (eV/Angst)
 -----------------------------------------------------------------------------------
      0.00000      0.00000      0.00000        -0.000112     -0.000075     -0.000283
 -----------------------------------------------------------------------------------
    total drift:                               -0.000112     -0.000075     -0.000283


--------------------------------------------------------------------------------------------------------



  FREE ENERGIE OF THE ION-ELECTRON SYSTEM (eV)
  ---------------------------------------------------
  free  energy   TOTEN  =        -0.07119686 eV

  energy  without entropy=       -0.01819780  energy(sigma->0) =       -0.04469733
 


--------------------------------------------------------------------------------------------------------


    POTLOK:  cpu time      0.1635: real time      0.1649


--------------------------------------------------------------------------------------------------------


     LOOP+:  cpu time      1.2876: real time      1.2999
    4ORBIT:  cpu time      0.0000: real time      0.0000

 total amount of memory used by VASP MPI-rank0    50902. kBytes
=======================================================================

   base      :      30000. kBytes
   nonl-proj :        116. kBytes
   fftplans  :       8156. kBytes
   grid      :      12536. kBytes
   one-center:          1. kBytes
   wavefun   :         93. kBytes
 
  
  
 General timing and accounting informations for this job:
 ========================================================
  
                  Total CPU time used (sec):        2.689
                            User time (sec):        2.230
                          System time (sec):        0.458
                         Elapsed time (sec):        3.253
  
                   Maximum memory used (kb):      429148.
                   Average memory used (kb):          N/A
  
                          Minor page faults:        37001
                          Major page faults:           34
                 Voluntary context switches:         1148
