 vasp.6.4.2 20Jul23 (build Aug 07 2024 12:45:50) gamma-only                     
  
 executed on             LinuxIFC date 2026.09.30  12:16:39
 running   64 mpi-ranks, on    1 nodes
 distrk:  each k-point on   64 cores,    1 groups
 distr:  one band on NCORE=  32 cores,    2 groups


--------------------------------------------------------------------------------------------------------


 INCAR:
   ALGO = Normal
   EDIFF = 1e-05
   EFERMI = Midgap
   ENCUT = 520.0
   GGA = Pe
   GGA_COMPAT = False
   IBRION = -1
   ISMEAR = 0
   ISPIN = 1
   ISYM = 0
   LAECHG = False
   LASPH = True
   LCHARG = False
   LMAXMIX = 6
   LMIXTAU = True
   LREAL = False
   LWAVE = False
   NCORE = 32
   NELM = 400
   NSW = 0
   PREC = Accurate
   SIGMA = 0.05
   SYSTEM = Li_atom_ispin1

 POTCAR:    PAW_PBE Li_sv 10Sep2004               
 -----------------------------------------------------------------------------
|                                                                             |
|           W    W    AA    RRRRR   N    N  II  N    N   GGGG   !!!           |
|           W    W   A  A   R    R  NN   N  II  NN   N  G    G  !!!           |
|           W    W  A    A  R    R  N N  N  II  N N  N  G       !!!           |
|           W WW W  AAAAAA  RRRRR   N  N N  II  N  N N  G  GGG   !            |
|           WW  WW  A    A  R   R   N   NN  II  N   NN  G    G                |
|           W    W  A    A  R    R  N    N  II  N    N   GGGG   !!!           |
|                                                                             |
|     For optimal performance we recommend to set                             |
|       NCORE = 2 up to number-of-cores-per-socket                            |
|     NCORE specifies how many cores store one orbital (NPAR=cpu/NCORE).      |
|     This setting can greatly improve the performance of VASP for DFT.       |
|     The default, NCORE=1 might be grossly inefficient on modern             |
|     multi-core architectures or massively parallel machines. Do your        |
|     own testing! More info at https://www.vasp.at/wiki/index.php/NCORE      |
|     Unfortunately you need to use the default for GW and RPA                |
|     calculations (for HF NCORE is supported but not extensively tested      |
|     yet).                                                                   |
|                                                                             |
 -----------------------------------------------------------------------------

 POTCAR:    PAW_PBE Li_sv 10Sep2004               
   SHA256 =  7e51fe1804c037e1dccc81a9c376d94d693a7559600c847f4b41960edb8ab895 Li_sv/POTCAR          
   COPYR  = (c) Copyright 10Sep2004 Georg Kresse                                                    
   COPYR  = This file is part of the software VASP. Any use, copying, and all other rights are regul
   COPYR  = If you do not have a valid VASP license, you may not use, copy or distribute this file. 
   VRHFIN =Li: 1s2s2p                                                                               
   LEXCH  = PE                                                                                      
   EATOM  =   202.7858 eV,   14.9043 Ry                                                             
                                                                                                    
   TITEL  = PAW_PBE Li_sv 10Sep2004                                                                 
   LULTRA =        F    use ultrasoft PP ?                                                          
   IUNSCR =        0    unscreen: 0-lin 1-nonlin 2-no                                               
   RPACOR =    0.000    partial core radius                                                         
   POMASS =    7.010; ZVAL   =    3.000    mass and valenz                                          
   RCORE  =    1.700    outmost cutoff radius                                                       
   RWIGS  =    2.050; RWIGS  =    1.085    wigner-seitz radius (au A)                               
   ENMAX  =  499.034; ENMIN  =  374.276 eV                                                          
   ICORE  =        2    local potential                                                             
   LCOR   =        T    correct aug charges                                                         
   LPAW   =        T    paw PP                                                                      
   EAUG   =  628.945                                                                                
   RMAX   =    1.732    core radius for proj-oper                                                   
   RAUG   =    1.300    factor for augmentation sphere                                              
   RDEP   =    1.728    radius for radial grids                                                     
   RDEPT  =    1.329    core radius for aug-charge                                                  
                                                                                                    
   Atomic configuration                                                                             
    4 entries                                                                                       
     n  l   j            E        occ.                                                              
     1  0  0.50       -51.8549   2.0000                                                             
     2  0  0.50        -2.8742   1.0000                                                             
     2  1  0.50        -1.3606   0.0000                                                             
     3  2  1.50        -1.3606   0.0000                                                             
   Description                                                                                      
     l       E           TYP  RCUT    TYP  RCUT                                                     
     0    -51.8548813     23  1.400                                                                 
     0     -2.8742052     23  1.700                                                                 
     1     -1.3605826     23  1.400                                                                 
     2     -1.3605826     23  1.400                                                                 
  local pseudopotential read in
  atomic valenz-charges read in
  non local Contribution for L=           0  read in
    real space projection operators read in
  non local Contribution for L=           0  read in
    real space projection operators read in
  non local Contribution for L=           1  read in
    real space projection operators read in
    PAW grid and wavefunctions read in
 
   number of l-projection  operators is LMAX  =           3
   number of lm-projection operators is LMMAX =           5
 
  PAW_PBE Li_sv 10Sep2004               :
 energy of atom  1       EATOM= -202.7858
 kinetic energy error for atom=    0.0130 (will be added to EATOM!!)
 
 
 POSCAR: Li1
  positions in direct lattice
  No initial velocities read in
 exchange correlation table for  LEXCH =        8
   RHO(1)=    0.500       N(1)  =     2000
   RHO(2)=  100.500       N(2)  =     4000
 


--------------------------------------------------------------------------------------------------------


 ion  position               nearest neighbor table
   1  0.000  0.000  0.000-
 

IMPORTANT INFORMATION: All symmetrisations will be switched off!
NOSYMM: (Re-)initialisation of all symmetry stuff for point group C_1.


----------------------------------------------------------------------------------------

                                     Primitive cell                                     

  volume of cell :    3442.8000

  direct lattice vectors                    reciprocal lattice vectors
    15.000000000  0.000000000  0.000000000     0.066666667 -0.000000000  0.000000000
     0.000000000 15.100000000  0.000000000     0.000000000  0.066225166  0.000000000
     0.000000000  0.000000000 15.200000000    -0.000000000 -0.000000000  0.065789474

  length of vectors
    15.000000000 15.100000000 15.200000000     0.066666667  0.066225166  0.065789474

  position of ions in fractional coordinates (direct lattice)
     0.000000000  0.000000000  0.000000000

  ion indices of the primitive-cell ions
   primitive index   ion index
                 1           1

----------------------------------------------------------------------------------------

 
 
 KPOINTS: Automatic kpoint scheme                 

Automatic generation of k-mesh.
 Grid dimensions read from file:
 generate k-points for:    1    1    1

 Generating k-lattice:

  Cartesian coordinates                     Fractional coordinates (reciprocal lattice)
     0.066666667 -0.000000000  0.000000000     1.000000000 -0.000000000  0.000000000
     0.000000000  0.066225166  0.000000000     0.000000000  1.000000000  0.000000000
    -0.000000000 -0.000000000  0.065789474     0.000000000 -0.000000000  1.000000000

  Length of vectors
     0.066666667  0.066225166  0.065789474

  Shift w.r.t. Gamma in fractional coordinates (k-lattice)
     0.000000000  0.000000000  0.000000000

 
 Subroutine IBZKPT returns following result:
 ===========================================
 
 Found      1 irreducible k-points:
 
 Following reciprocal coordinates:
            Coordinates               Weight
  0.000000  0.000000  0.000000      1.000000
 
 Following cartesian coordinates:
            Coordinates               Weight
  0.000000  0.000000  0.000000      1.000000
 


--------------------------------------------------------------------------------------------------------




 Dimension of arrays:
   k-points           NKPTS =      1   k-points in BZ     NKDIM =      1   number of bands    NBANDS=      6
   number of dos      NEDOS =    301   number of ions     NIONS =      1
   non local maximal  LDIM  =      3   non local SUM 2l+1 LMDIM =      5
   total plane-waves  NPLWV = ******
   max r-space proj   IRMAX =      1   max aug-charges    IRDMAX=   5556
   dimension x,y,z NGX =   112 NGY =  112 NGZ =  120
   dimension x,y,z NGXF=   224 NGYF=  224 NGZF=  240
   support grid    NGXF=   224 NGYF=  224 NGZF=  240
   ions per type =               1
   NGX,Y,Z   is equivalent  to a cutoff of  12.41, 12.33, 13.12 a.u.
   NGXF,Y,Z  is equivalent  to a cutoff of  24.83, 24.66, 26.25 a.u.

 SYSTEM =  Li_atom_ispin1                          
 POSCAR =  Li1                                     

 Startparameter for this run:
   NWRITE =      2    write-flag & timer
   PREC   = accura    normal or accurate (medium, high low for compatibility)
   ISTART =      0    job   : 0-new  1-cont  2-samecut
   ICHARG =      2    charge: 1-file 2-atom 10-const
   ISPIN  =      1    spin polarized calculation?
   LNONCOLLINEAR =      F non collinear calculations
   LSORBIT =      F    spin-orbit coupling
   INIWAV =      1    electr: 0-lowe 1-rand  2-diag
   LASPH  =      T    aspherical Exc in radial PAW
 Electronic Relaxation 1
   ENCUT  =  520.0 eV  38.22 Ry    6.18 a.u.  27.89 28.08 28.26*2*pi/ulx,y,z
   ENINI  =  520.0     initial cutoff
   ENAUG  =  628.9 eV  augmentation charge cutoff
   NELM   =    400;   NELMIN=  2; NELMDL= -5     # of ELM steps 
   EDIFF  = 0.1E-04   stopping-criterion for ELM
   LREAL  =      F    real-space projection
   NLSPLINE    = F    spline interpolate recip. space projectors
   LCOMPAT=      F    compatible to vasp.4.4
   GGA_COMPAT  = F    GGA compatible to vasp.4.4-vasp.4.6
   LMAXPAW     = -100 max onsite density
   LMAXMIX     =    6 max onsite mixed and CHGCAR
   VOSKOWN=      0    Vosko Wilk Nusair interpolation
   ROPT   =    0.00000
 Ionic relaxation
   EDIFFG = 0.1E-03   stopping-criterion for IOM
   NSW    =      0    number of steps for IOM
   NBLOCK =      1;   KBLOCK =      1    inner block; outer block 
   IBRION =     -1    ionic relax: 0-MD 1-quasi-New 2-CG
   NFREE  =      0    steps in history (QN), initial steepest desc. (CG)
   ISIF   =      2    stress and relaxation
   IWAVPR =     10    prediction:  0-non 1-charg 2-wave 3-comb
   ISYM   =      0    0-nonsym 1-usesym 2-fastsym
   LCORR  =      T    Harris-Foulkes like correction to forces

   POTIM  = 0.5000    time-step for ionic-motion
   TEIN   =    0.0    initial temperature
   TEBEG  =    0.0;   TEEND  =   0.0 temperature during run
   SMASS  =  -3.00    Nose mass-parameter (am)
   estimated Nose-frequenzy (Omega)   =  0.10E-29 period in steps = 0.13E+47 mass=  -0.514E-26a.u.
   SCALEE = 1.0000    scale energy and forces
   NPACO  =    256;   APACO  = 10.0  distance and # of slots for P.C.
   PSTRESS=    0.0 pullay stress

  Mass of Ions in am
   POMASS =   7.01
  Ionic Valenz
   ZVAL   =   3.00
  Atomic Wigner-Seitz radii
   RWIGS  =  -1.00
  virtual crystal weights 
   VCA    =   1.00
   NELECT =       3.0000    total number of electrons
   NUPDOWN=      -1.0000    fix difference up-down

 DOS related values:
   EMIN   =  10.00;   EMAX   =-10.00  energy-range for DOS
   EFERMI =   0.00;   METHOD = MIDGAP      
   ISMEAR =     0;   SIGMA  =   0.05  broadening in eV -4-tet -1-fermi 0-gaus

 Electronic relaxation 2 (details)
   IALGO  =     38    algorithm
   LDIAG  =      T    sub-space diagonalisation (order eigenvalues)
   LSUBROT=      F    optimize rotation matrix (better conditioning)
   TURBO    =      0    0=normal 1=particle mesh
   IRESTART =      0    0=no restart 2=restart with 2 vectors
   NREBOOT  =      0    no. of reboots
   NMIN     =      0    reboot dimension
   EREF     =   0.00    reference energy to select bands
   IMIX   =      4    mixing-type and parameters
     AMIX     =   0.40;   BMIX     =  1.00
     AMIX_MAG =   1.60;   BMIX_MAG =  1.00
     AMIN     =   0.10
     WC   =   100.;   INIMIX=   1;  MIXPRE=   1;  MAXMIX= -45

 Intra band minimization:
   WEIMIN = 0.0000     energy-eigenvalue tresh-hold
   EBREAK =  0.42E-06  absolut break condition
   DEPER  =   0.30     relativ break condition  

   TIME   =   0.40     timestep for ELM

  volume/ion in A,a.u.               =    3442.80     23233.16
  Fermi-wavevector in a.u.,A,eV,Ry     =   0.156367  0.295490  0.332670  0.024451
  Thomas-Fermi vector in A             =   0.843192
 
 Write flags
   LWAVE        =      F    write WAVECAR
   LDOWNSAMPLE  =      F    k-point downsampling of WAVECAR
   LCHARG       =      F    write CHGCAR
   LVTOT        =      F    write LOCPOT, total local potential
   LVHAR        =      F    write LOCPOT, Hartree potential only
   LELF         =      F    write electronic localiz. function (ELF)
   LORBIT       =      0    0 simple, 1 ext, 2 COOP (PROOUT), +10 PAW based schemes


 Dipole corrections
   LMONO  =      F    monopole corrections only (constant potential shift)
   LDIPOL =      F    correct potential (dipole corrections)
   IDIPOL =      0    1-x, 2-y, 3-z, 4-all directions 
   EPSILON=  1.0000000 bulk dielectric constant

 Exchange correlation treatment:
   GGA     =    PE    GGA type
   LEXCH   =     8    internal setting for exchange type
   LIBXC   =     F    Libxc                    
   VOSKOWN =     0    Vosko Wilk Nusair interpolation
   LHFCALC =     F    Hartree Fock is set to
   LHFONE  =     F    Hartree Fock one center treatment
   AEXX    =    0.0000 exact exchange contribution

 Linear response parameters
   LEPSILON=     F    determine dielectric tensor
   LRPA    =     F    only Hartree local field effects (RPA)
   LNABLA  =     F    use nabla operator in PAW spheres
   LVEL    =     F    velocity operator in full k-point grid
   CSHIFT  =0.1000    complex shift for real part using Kramers Kronig
   OMEGAMAX=  -1.0    maximum frequency
   DEG_THRESHOLD= 0.2000000E-02 threshold for treating states as degnerate
   RTIME   =   -0.100 relaxation time in fs
  (WPLASMAI=    0.000 imaginary part of plasma frequency in eV, 0.658/RTIME)
   DFIELD  = 0.0000000 0.0000000 0.0000000 field for delta impulse in time
 
  Optional k-point grid parameters
   LKPOINTS_OPT  =     F    use optional k-point grid
   KPOINTS_OPT_MODE=     1    mode for optional k-point grid
 
 Orbital magnetization related:
   ORBITALMAG=     F  switch on orbital magnetization
   LCHIMAG   =     F  perturbation theory with respect to B field
   DQ        =  0.001000  dq finite difference perturbation B field
   LLRAUG    =     F  two centre corrections for induced B field
   LBONE     =     F  B-component reconstruction in AE one-centre
   LVGVCALC  =     T  calculate vGv susceptibility
   LVGVAPPL  =     F  apply vGv susceptibility instead of pGv for G=0

 Random number generation:
   RANDOM_GENERATOR = DEFAULT
   PCG_SEED         = not used


--------------------------------------------------------------------------------------------------------


 Static calculation
 charge density and potential will be updated during run
 non-spin polarized calculation
 Variant of blocked Davidson
 Davidson routine will perform the subspace rotation
 perform sub-space diagonalisation
    after iterative eigenvector-optimisation
 modified Broyden-mixing scheme, WC =      100.0
 initial mixing is a Kerker type mixing with AMIX =  0.4000 and BMIX =      1.0000
 Hartree-type preconditioning will be used
 using additional bands            4
 reciprocal scheme for non local part
 calculate Harris-corrections to forces 
   (improved forces if not selfconsistent)
 use gradient corrections 
 use of overlap-Matrix (Vanderbilt PP)
 Gauss-broadening in eV      SIGMA  =   0.05


--------------------------------------------------------------------------------------------------------


  energy-cutoff  :      520.00
  volume of cell :     3442.80
      direct lattice vectors                 reciprocal lattice vectors
    15.000000000  0.000000000  0.000000000     0.066666667 -0.000000000  0.000000000
     0.000000000 15.100000000  0.000000000     0.000000000  0.066225166  0.000000000
     0.000000000  0.000000000 15.200000000    -0.000000000 -0.000000000  0.065789474

  length of vectors
    15.000000000 15.100000000 15.200000000     0.066666667  0.066225166  0.065789474


 
 k-points in units of 2pi/SCALE and weight: Automatic kpoint scheme                 
   0.00000000  0.00000000  0.00000000       1.000
 
 k-points in reciprocal lattice and weights: Automatic kpoint scheme                 
   0.00000000  0.00000000  0.00000000       1.000
 
 position of ions in fractional coordinates (direct lattice) 
   0.00000000  0.00000000  0.00000000
 
 position of ions in cartesian coordinates  (Angst):
   0.00000000  0.00000000  0.00000000
 


--------------------------------------------------------------------------------------------------------


 use parallel FFT for orbitals z direction half grid
 k-point   1 :   0.0000 0.0000 0.0000  plane waves:   46338

 maximum and minimum number of plane-waves per node :      1457     1434

 maximum number of plane-waves:     46338
 maximum index in each direction: 
   IXMAX=   27   IYMAX=   28   IZMAX=   28
   IXMIN=  -27   IYMIN=  -28   IZMIN=    0


 parallel 3D FFT for wavefunctions:
    minimum data exchange during FFTs selected (reduces bandwidth)
 parallel 3D FFT for charge:
    minimum data exchange during FFTs selected (reduces bandwidth)


 total amount of memory used by VASP MPI-rank0    50843. kBytes
=======================================================================

   base      :      30000. kBytes
   nonl-proj :         81. kBytes
   fftplans  :       8156. kBytes
   grid      :      12536. kBytes
   one-center:          0. kBytes
   wavefun   :         70. kBytes
 
     INWAV:  cpu time      0.0000: real time      0.0003
 Broyden mixing: mesh for mixing (old mesh)
   NGX = 55   NGY = 57   NGZ = 57
  (NGX  =224   NGY  =224   NGZ  =240)
  gives a total of 178695 points

 initial charge density was supplied:
 charge density of overlapping atoms calculated
 number of electron       3.0000000 magnetization 
 keeping initial charge density in first step


--------------------------------------------------------------------------------------------------------


 Maximum index for augmentation-charges          371 (set IRDMAX)


--------------------------------------------------------------------------------------------------------


 First call to EWALD:  gamma=   0.117
 Maximum number of real-space cells 3x 3x 3
 Maximum number of reciprocal cells 3x 3x 3

    FEWALD:  cpu time      0.0010: real time      0.0010


--------------------------------------- Ionic step        1  -------------------------------------------




--------------------------------------- Iteration      1(   1)  ---------------------------------------


    POTLOK:  cpu time      0.1374: real time      0.1384
    SETDIJ:  cpu time      0.0451: real time      0.0453
     EDDAV:  cpu time      0.0144: real time      0.0146
       DOS:  cpu time      0.0005: real time      0.0006
    --------------------------------------------
      LOOP:  cpu time      0.1975: real time      0.1988

 eigenvalue-minimisations  :    12
 total energy-change (2. order) : 0.4941770E+01  (-0.7769096E+02)
 number of electron       3.0000000 magnetization 
 augmentation part        3.0000000 magnetization 

 Free energy of the ion-electron system (eV)
  ---------------------------------------------------
  alpha Z        PSCENC =         0.00668638
  Ewald energy   TEWEN  =       -12.17540799
  -Hartree energ DENC   =       -80.17049904
  -exchange      EXHF   =         0.00000000
  -V(xc)+E(xc)   XCENC  =        11.40397352
  PAW double counting   =        79.76162584      -95.16706656
  entropy T*S    EENTRO =        -0.02820948
  eigenvalues    EBANDS =      -101.46217952
  atomic energy  EATOM  =       202.77284695
  Solvation  Ediel_sol  =         0.00000000
  ---------------------------------------------------
  free energy    TOTEN  =         4.94177011 eV

  energy without entropy =        4.96997959  energy(sigma->0) =        4.95587485


--------------------------------------------------------------------------------------------------------




--------------------------------------- Iteration      1(   2)  ---------------------------------------


     EDDAV:  cpu time      0.0213: real time      0.0220
       DOS:  cpu time      0.0003: real time      0.0003
    --------------------------------------------
      LOOP:  cpu time      0.0216: real time      0.0224

 eigenvalue-minimisations  :    24
 total energy-change (2. order) :-0.4048533E+01  (-0.4048533E+01)
 number of electron       3.0000000 magnetization 
 augmentation part        3.0000000 magnetization 

 Free energy of the ion-electron system (eV)
  ---------------------------------------------------
  alpha Z        PSCENC =         0.00668638
  Ewald energy   TEWEN  =       -12.17540799
  -Hartree energ DENC   =       -80.17049904
  -exchange      EXHF   =         0.00000000
  -V(xc)+E(xc)   XCENC  =        11.40397352
  PAW double counting   =        79.76162584      -95.16706656
  entropy T*S    EENTRO =        -0.02820948
  eigenvalues    EBANDS =      -105.51071300
  atomic energy  EATOM  =       202.77284695
  Solvation  Ediel_sol  =         0.00000000
  ---------------------------------------------------
  free energy    TOTEN  =         0.89323663 eV

  energy without entropy =        0.92144611  energy(sigma->0) =        0.90734137


--------------------------------------------------------------------------------------------------------




--------------------------------------- Iteration      1(   3)  ---------------------------------------


     EDDAV:  cpu time      0.0118: real time      0.0119
       DOS:  cpu time      0.0003: real time      0.0003
    --------------------------------------------
      LOOP:  cpu time      0.0121: real time      0.0122

 eigenvalue-minimisations  :    12
 total energy-change (2. order) :-0.6818196E+00  (-0.6818196E+00)
 number of electron       3.0000000 magnetization 
 augmentation part        3.0000000 magnetization 

 Free energy of the ion-electron system (eV)
  ---------------------------------------------------
  alpha Z        PSCENC =         0.00668638
  Ewald energy   TEWEN  =       -12.17540799
  -Hartree energ DENC   =       -80.17049904
  -exchange      EXHF   =         0.00000000
  -V(xc)+E(xc)   XCENC  =        11.40397352
  PAW double counting   =        79.76162584      -95.16706656
  entropy T*S    EENTRO =        -0.02820948
  eigenvalues    EBANDS =      -106.19253258
  atomic energy  EATOM  =       202.77284695
  Solvation  Ediel_sol  =         0.00000000
  ---------------------------------------------------
  free energy    TOTEN  =         0.21141704 eV

  energy without entropy =        0.23962652  energy(sigma->0) =        0.22552178


--------------------------------------------------------------------------------------------------------




--------------------------------------- Iteration      1(   4)  ---------------------------------------


     EDDAV:  cpu time      0.0158: real time      0.0159
       DOS:  cpu time      0.0003: real time      0.0003
    --------------------------------------------
      LOOP:  cpu time      0.0161: real time      0.0163

 eigenvalue-minimisations  :    18
 total energy-change (2. order) :-0.2377621E+00  (-0.2377621E+00)
 number of electron       3.0000000 magnetization 
 augmentation part        3.0000000 magnetization 

 Free energy of the ion-electron system (eV)
  ---------------------------------------------------
  alpha Z        PSCENC =         0.00668638
  Ewald energy   TEWEN  =       -12.17540799
  -Hartree energ DENC   =       -80.17049904
  -exchange      EXHF   =         0.00000000
  -V(xc)+E(xc)   XCENC  =        11.40397352
  PAW double counting   =        79.76162584      -95.16706656
  entropy T*S    EENTRO =        -0.02820948
  eigenvalues    EBANDS =      -106.43029473
  atomic energy  EATOM  =       202.77284695
  Solvation  Ediel_sol  =         0.00000000
  ---------------------------------------------------
  free energy    TOTEN  =        -0.02634511 eV

  energy without entropy =        0.00186437  energy(sigma->0) =       -0.01224037


--------------------------------------------------------------------------------------------------------




--------------------------------------- Iteration      1(   5)  ---------------------------------------


     EDDAV:  cpu time      0.0119: real time      0.0120
       DOS:  cpu time      0.0003: real time      0.0003
    CHARGE:  cpu time      0.0105: real time      0.0106
    MIXING:  cpu time      0.0034: real time      0.0035
    --------------------------------------------
      LOOP:  cpu time      0.0262: real time      0.0264

 eigenvalue-minimisations  :    12
 total energy-change (2. order) :-0.4684390E-02  (-0.4684390E-02)
 number of electron       3.0000001 magnetization 
 augmentation part        0.9184243 magnetization 

 Broyden mixing:
  rms(total) = 0.60849E-02    rms(broyden)= 0.52039E-02
  rms(prec ) = 0.54738E-02
  weight for this iteration     100.00
  WARNING: grid for Broyden might be to small

 Free energy of the ion-electron system (eV)
  ---------------------------------------------------
  alpha Z        PSCENC =         0.00668638
  Ewald energy   TEWEN  =       -12.17540799
  -Hartree energ DENC   =       -80.17049904
  -exchange      EXHF   =         0.00000000
  -V(xc)+E(xc)   XCENC  =        11.40397352
  PAW double counting   =        79.76162584      -95.16706656
  entropy T*S    EENTRO =        -0.02820948
  eigenvalues    EBANDS =      -106.43497912
  atomic energy  EATOM  =       202.77284695
  Solvation  Ediel_sol  =         0.00000000
  ---------------------------------------------------
  free energy    TOTEN  =        -0.03102950 eV

  energy without entropy =       -0.00282002  energy(sigma->0) =       -0.01692476


--------------------------------------------------------------------------------------------------------




--------------------------------------- Iteration      1(   6)  ---------------------------------------


    POTLOK:  cpu time      0.1331: real time      0.1340
    SETDIJ:  cpu time      0.0447: real time      0.0449
     EDDAV:  cpu time      0.0178: real time      0.0179
       DOS:  cpu time      0.0004: real time      0.0004
    CHARGE:  cpu time      0.0111: real time      0.0112
    MIXING:  cpu time      0.0022: real time      0.0022
    --------------------------------------------
      LOOP:  cpu time      0.2092: real time      0.2106

 eigenvalue-minimisations  :    18
 total energy-change (2. order) : 0.5716976E-05  (-0.2513013E-03)
 number of electron       3.0000001 magnetization 
 augmentation part        0.9140285 magnetization 

 Broyden mixing:
  rms(total) = 0.37853E-02    rms(broyden)= 0.36133E-02
  rms(prec ) = 0.36823E-02
  weight for this iteration     100.00

 eigenvalues of (default mixing * dielectric matrix)
  average eigenvalue GAMMA=   0.7981
  0.7981

 Free energy of the ion-electron system (eV)
  ---------------------------------------------------
  alpha Z        PSCENC =         0.00668638
  Ewald energy   TEWEN  =       -12.17540799
  -Hartree energ DENC   =       -80.13006533
  -exchange      EXHF   =         0.00000000
  -V(xc)+E(xc)   XCENC  =        11.39889103
  PAW double counting   =        79.51185105      -94.90733427
  entropy T*S    EENTRO =        -0.02820948
  eigenvalues    EBANDS =      -106.48028212
  atomic energy  EATOM  =       202.77284695
  Solvation  Ediel_sol  =         0.00000000
  ---------------------------------------------------
  free energy    TOTEN  =        -0.03102378 eV

  energy without entropy =       -0.00281430  energy(sigma->0) =       -0.01691904


--------------------------------------------------------------------------------------------------------




--------------------------------------- Iteration      1(   7)  ---------------------------------------


    POTLOK:  cpu time      0.1299: real time      0.1306
    SETDIJ:  cpu time      0.0447: real time      0.0449
     EDDAV:  cpu time      0.0126: real time      0.0127
       DOS:  cpu time      0.0004: real time      0.0004
    CHARGE:  cpu time      0.0108: real time      0.0109
    MIXING:  cpu time      0.0022: real time      0.0022
    --------------------------------------------
      LOOP:  cpu time      0.2005: real time      0.2016

 eigenvalue-minimisations  :    12
 total energy-change (2. order) : 0.4718708E-04  (-0.1150407E-04)
 number of electron       3.0000001 magnetization 
 augmentation part        0.9136986 magnetization 

 Broyden mixing:
  rms(total) = 0.26824E-02    rms(broyden)= 0.26663E-02
  rms(prec ) = 0.27148E-02
  weight for this iteration     100.00

 eigenvalues of (default mixing * dielectric matrix)
  average eigenvalue GAMMA=   1.8535
  1.0920  2.6150

 Free energy of the ion-electron system (eV)
  ---------------------------------------------------
  alpha Z        PSCENC =         0.00668638
  Ewald energy   TEWEN  =       -12.17540799
  -Hartree energ DENC   =       -80.12664458
  -exchange      EXHF   =         0.00000000
  -V(xc)+E(xc)   XCENC  =        11.39829509
  PAW double counting   =        79.46069836      -94.85516191
  entropy T*S    EENTRO =        -0.02820948
  eigenvalues    EBANDS =      -106.48407941
  atomic energy  EATOM  =       202.77284695
  Solvation  Ediel_sol  =         0.00000000
  ---------------------------------------------------
  free energy    TOTEN  =        -0.03097659 eV

  energy without entropy =       -0.00276711  energy(sigma->0) =       -0.01687185


--------------------------------------------------------------------------------------------------------




--------------------------------------- Iteration      1(   8)  ---------------------------------------


    POTLOK:  cpu time      0.1329: real time      0.1338
    SETDIJ:  cpu time      0.0450: real time      0.0452
     EDDAV:  cpu time      0.0127: real time      0.0128
       DOS:  cpu time      0.0004: real time      0.0004
    CHARGE:  cpu time      0.0116: real time      0.0116
    MIXING:  cpu time      0.0021: real time      0.0021
    --------------------------------------------
      LOOP:  cpu time      0.2045: real time      0.2058

 eigenvalue-minimisations  :    12
 total energy-change (2. order) :-0.3934873E-03  (-0.5778892E-05)
 number of electron       3.0000001 magnetization 
 augmentation part        0.9133957 magnetization 

 Broyden mixing:
  rms(total) = 0.18873E-03    rms(broyden)= 0.16475E-03
  rms(prec ) = 0.20367E-03
  weight for this iteration     100.00
  WARNING: grid for Broyden might be to small

 eigenvalues of (default mixing * dielectric matrix)
  average eigenvalue GAMMA=   1.5172
  2.4952  1.1950  0.8616

 Free energy of the ion-electron system (eV)
  ---------------------------------------------------
  alpha Z        PSCENC =         0.00668638
  Ewald energy   TEWEN  =       -12.17540799
  -Hartree energ DENC   =       -80.12309567
  -exchange      EXHF   =         0.00000000
  -V(xc)+E(xc)   XCENC  =        11.39710821
  PAW double counting   =        79.36865654      -94.76121340
  entropy T*S    EENTRO =        -0.02820948
  eigenvalues    EBANDS =      -106.48874161
  atomic energy  EATOM  =       202.77284695
  Solvation  Ediel_sol  =         0.00000000
  ---------------------------------------------------
  free energy    TOTEN  =        -0.03137008 eV

  energy without entropy =       -0.00316060  energy(sigma->0) =       -0.01726534


--------------------------------------------------------------------------------------------------------




--------------------------------------- Iteration      1(   9)  ---------------------------------------


    POTLOK:  cpu time      0.1342: real time      0.1354
    SETDIJ:  cpu time      0.0447: real time      0.0449
     EDDAV:  cpu time      0.0125: real time      0.0126
       DOS:  cpu time      0.0003: real time      0.0003
    --------------------------------------------
      LOOP:  cpu time      0.1917: real time      0.1932

 eigenvalue-minimisations  :    12
 total energy-change (2. order) :-0.4994303E-05  (-0.7195512E-06)
 number of electron       3.0000001 magnetization 
 augmentation part        0.9133957 magnetization 

 Free energy of the ion-electron system (eV)
  ---------------------------------------------------
  alpha Z        PSCENC =         0.00668638
  Ewald energy   TEWEN  =       -12.17540799
  -Hartree energ DENC   =       -80.12332590
  -exchange      EXHF   =         0.00000000
  -V(xc)+E(xc)   XCENC  =        11.39722963
  PAW double counting   =        79.37537707      -94.76847682
  entropy T*S    EENTRO =        -0.02820948
  eigenvalues    EBANDS =      -106.48809491
  atomic energy  EATOM  =       202.77284695
  Solvation  Ediel_sol  =         0.00000000
  ---------------------------------------------------
  free energy    TOTEN  =        -0.03137507 eV

  energy without entropy =       -0.00316559  energy(sigma->0) =       -0.01727033


--------------------------------------------------------------------------------------------------------




 average (electrostatic) potential at core
  the test charge radii are     0.7079
  (the norm of the test charge is              1.0000)
       1 -70.9393
 
 
 
 E-fermi :  -2.8267     XC(G=0):  -0.4311     alpha+bet : -0.0434

 Fermi energy:        -2.8266750389

 k-point     1 :       0.0000    0.0000    0.0000
  band No.  band energies     occupation 
      1     -51.8307      2.00000
      2      -2.8267      1.00000
      3      -1.0432      0.00000
      4      -1.0428      0.00000
      5      -1.0425      0.00000
      6      -0.1672      0.00000


--------------------------------------------------------------------------------------------------------


 soft charge-density along one line, spin component           1
         0         1         2         3         4         5         6         7         8         9
 total charge-density along one line
 
 pseudopotential strength for first ion, spin component:           1
-44.065   1.917  -0.000   0.000   0.000
  1.917  -8.185  -0.000   0.000  -0.000
 -0.000  -0.000   0.110  -0.000  -0.000
  0.000   0.000  -0.000   0.110   0.000
  0.000  -0.000  -0.000   0.000   0.110
 total augmentation occupancy for first ion, spin component:           1
  2.001   0.006   0.000  -0.000   0.000
  0.006   0.983   0.000   0.000  -0.000
  0.000   0.000   0.000   0.000  -0.000
 -0.000   0.000   0.000   0.000  -0.000
  0.000  -0.000  -0.000  -0.000   0.000


------------------------ aborting loop because EDIFF is reached ----------------------------------------


    CHARGE:  cpu time      0.0111: real time      0.0112
    FORLOC:  cpu time      0.0020: real time      0.0020
    FORNL :  cpu time      0.0004: real time      0.0004
    STRESS:  cpu time      0.0061: real time      0.0061
    FORHAR:  cpu time      0.0312: real time      0.0315
    MIXING:  cpu time      0.0022: real time      0.0022
    OFIELD:  cpu time      0.0000: real time      0.0000

  FORCE on cell =-STRESS in cart. coord.  units (eV):
  Direction    XX          YY          ZZ          XY          YZ          ZX
  --------------------------------------------------------------------------------------
  Alpha Z     0.00669     0.00669     0.00669
  Ewald      -3.97656    -4.05854    -4.14031     0.00000     0.00000     0.00000
  Hartree    26.78672    26.70732    26.62871     0.00001     0.00014    -0.00002
  E(xc)     -12.65637   -12.65637   -12.65636     0.00000     0.00001    -0.00000
  Local     -49.66847   -49.50703   -49.34667    -0.00002    -0.00019     0.00002
  n-local   -19.67021   -19.67030   -19.67017    -0.00000    -0.00002     0.00000
  augment    17.09580    17.09590    17.09551    -0.00000     0.00001    -0.00000
  Kinetic    42.06342    42.06356    42.06349    -0.00003    -0.00006    -0.00000
  Fock        0.00000     0.00000     0.00000     0.00000     0.00000     0.00000
  -------------------------------------------------------------------------------------
  Total      -0.01897    -0.01877    -0.01910    -0.00003    -0.00011     0.00000
  in kB      -0.00883    -0.00873    -0.00889    -0.00002    -0.00005     0.00000
  external pressure =       -0.01 kB  Pullay stress =        0.00 kB


 VOLUME and BASIS-vectors are now :
 -----------------------------------------------------------------------------
  energy-cutoff  :      520.00
  volume of cell :     3442.80
      direct lattice vectors                 reciprocal lattice vectors
    15.000000000  0.000000000  0.000000000     0.066666667 -0.000000000  0.000000000
     0.000000000 15.100000000  0.000000000     0.000000000  0.066225166  0.000000000
     0.000000000  0.000000000 15.200000000    -0.000000000 -0.000000000  0.065789474

  length of vectors
    15.000000000 15.100000000 15.200000000     0.066666667  0.066225166  0.065789474


 FORCES acting on ions
    electron-ion (+dipol)            ewald-force                    non-local-force                 convergence-correction
 -----------------------------------------------------------------------------------------------
   0.117E-03 0.695E-04 0.103E-03   -.782E-17 0.109E-17 0.336E-17   0.288E-03 -.268E-03 0.703E-03   -.627E-03 -.149E-03 -.520E-03
 -----------------------------------------------------------------------------------------------
   0.117E-03 0.695E-04 0.103E-03   -.782E-17 0.109E-17 0.336E-17   0.288E-03 -.268E-03 0.703E-03   -.627E-03 -.149E-03 -.520E-03
 
 
 POSITION                                       TOTAL-FORCE (eV/Angst)
 -----------------------------------------------------------------------------------
      0.00000      0.00000      0.00000        -0.000222     -0.000347      0.000286
 -----------------------------------------------------------------------------------
    total drift:                               -0.000222     -0.000347      0.000286


--------------------------------------------------------------------------------------------------------



  FREE ENERGIE OF THE ION-ELECTRON SYSTEM (eV)
  ---------------------------------------------------
  free  energy   TOTEN  =        -0.03137507 eV

  energy  without entropy=       -0.00316559  energy(sigma->0) =       -0.01727033
 


--------------------------------------------------------------------------------------------------------


    POTLOK:  cpu time      0.1716: real time      0.1729


--------------------------------------------------------------------------------------------------------


     LOOP+:  cpu time      1.3502: real time      1.3624
    4ORBIT:  cpu time      0.0000: real time      0.0000

 total amount of memory used by VASP MPI-rank0    50843. kBytes
=======================================================================

   base      :      30000. kBytes
   nonl-proj :         81. kBytes
   fftplans  :       8156. kBytes
   grid      :      12536. kBytes
   one-center:          0. kBytes
   wavefun   :         70. kBytes
 
  
  
 General timing and accounting informations for this job:
 ========================================================
  
                  Total CPU time used (sec):        2.744
                            User time (sec):        2.289
                          System time (sec):        0.456
                         Elapsed time (sec):        3.316
  
                   Maximum memory used (kb):      427480.
                   Average memory used (kb):          N/A
  
                          Minor page faults:        37178
                          Major page faults:           19
                 Voluntary context switches:         1110
