 vasp.6.4.2 20Jul23 (build Aug 07 2024 12:45:50) gamma-only                     
  
 executed on             LinuxIFC date 2026.09.30  12:24:29
 running   64 mpi-ranks, on    1 nodes
 distrk:  each k-point on   64 cores,    1 groups
 distr:  one band on NCORE=  32 cores,    2 groups


--------------------------------------------------------------------------------------------------------


 INCAR:
   ALGO = Normal
   EDIFF = 1e-05
   EFERMI = Midgap
   ENCUT = 520.0
   GGA = Pe
   GGA_COMPAT = False
   IBRION = -1
   ISMEAR = 0
   ISPIN = 1
   ISYM = 0
   LAECHG = False
   LASPH = True
   LCHARG = False
   LMAXMIX = 6
   LMIXTAU = True
   LREAL = False
   LWAVE = False
   NCORE = 32
   NELM = 400
   NSW = 0
   PREC = Accurate
   SIGMA = 0.05
   SYSTEM = O_atom_ispin1

 POTCAR:    PAW_PBE O 08Apr2002                   
 -----------------------------------------------------------------------------
|                                                                             |
|           W    W    AA    RRRRR   N    N  II  N    N   GGGG   !!!           |
|           W    W   A  A   R    R  NN   N  II  NN   N  G    G  !!!           |
|           W    W  A    A  R    R  N N  N  II  N N  N  G       !!!           |
|           W WW W  AAAAAA  RRRRR   N  N N  II  N  N N  G  GGG   !            |
|           WW  WW  A    A  R   R   N   NN  II  N   NN  G    G                |
|           W    W  A    A  R    R  N    N  II  N    N   GGGG   !!!           |
|                                                                             |
|     For optimal performance we recommend to set                             |
|       NCORE = 2 up to number-of-cores-per-socket                            |
|     NCORE specifies how many cores store one orbital (NPAR=cpu/NCORE).      |
|     This setting can greatly improve the performance of VASP for DFT.       |
|     The default, NCORE=1 might be grossly inefficient on modern             |
|     multi-core architectures or massively parallel machines. Do your        |
|     own testing! More info at https://www.vasp.at/wiki/index.php/NCORE      |
|     Unfortunately you need to use the default for GW and RPA                |
|     calculations (for HF NCORE is supported but not extensively tested      |
|     yet).                                                                   |
|                                                                             |
 -----------------------------------------------------------------------------

 POTCAR:    PAW_PBE O 08Apr2002                   
   SHA256 =  818f92134a0a090dccd8ba1447fa70422a3b330e708bb4f08108d8ae51209ddf O/POTCAR              
   COPYR  = (c) Copyright 08Apr2002 Georg Kresse                                                    
   COPYR  = This file is part of the software VASP. Any use, copying, and all other rights are regul
   COPYR  = If you do not have a valid VASP license, you may not use, copy or distribute this file. 
   VRHFIN =O: s2p4                                                                                  
   LEXCH  = PE                                                                                      
   EATOM  =   432.3788 eV,   31.7789 Ry                                                             
                                                                                                    
   TITEL  = PAW_PBE O 08Apr2002                                                                     
   LULTRA =        F    use ultrasoft PP ?                                                          
   IUNSCR =        1    unscreen: 0-lin 1-nonlin 2-no                                               
   RPACOR =    1.200    partial core radius                                                         
   POMASS =   16.000; ZVAL   =    6.000    mass and valenz                                          
   RCORE  =    1.520    outmost cutoff radius                                                       
   RWIGS  =    1.550; RWIGS  =    0.820    wigner-seitz radius (au A)                               
   ENMAX  =  400.000; ENMIN  =  300.000 eV                                                          
   ICORE  =        2    local potential                                                             
   LCOR   =        T    correct aug charges                                                         
   LPAW   =        T    paw PP                                                                      
   EAUG   =  605.392                                                                                
   DEXC   =    0.000                                                                                
   RMAX   =    1.553    core radius for proj-oper                                                   
   RAUG   =    1.300    factor for augmentation sphere                                              
   RDEP   =    1.550    radius for radial grids                                                     
   RDEPT  =    1.329    core radius for aug-charge                                                  
                                                                                                    
   Atomic configuration                                                                             
    4 entries                                                                                       
     n  l   j            E        occ.                                                              
     1  0  0.50      -514.6923   2.0000                                                             
     2  0  0.50       -23.9615   2.0000                                                             
     2  1  0.50        -9.0305   4.0000                                                             
     3  2  1.50        -9.5241   0.0000                                                             
   Description                                                                                      
     l       E           TYP  RCUT    TYP  RCUT                                                     
     0    -23.9615318     23  1.200                                                                 
     0     -9.5240782     23  1.200                                                                 
     1     -9.0304911     23  1.520                                                                 
     1      8.1634956     23  1.520                                                                 
     2     -9.5240782      7  1.500                                                                 
  local pseudopotential read in
  partial core-charges read in
  partial kinetic energy density read in
  kinetic energy density of atom read in
  atomic valenz-charges read in
  non local Contribution for L=           0  read in
    real space projection operators read in
  non local Contribution for L=           0  read in
    real space projection operators read in
  non local Contribution for L=           1  read in
    real space projection operators read in
  non local Contribution for L=           1  read in
    real space projection operators read in
    PAW grid and wavefunctions read in
 
   number of l-projection  operators is LMAX  =           4
   number of lm-projection operators is LMMAX =           8
 
  PAW_PBE O 08Apr2002                   :
 energy of atom  1       EATOM= -432.3788
 kinetic energy error for atom=    0.0208 (will be added to EATOM!!)
 
 
 POSCAR: O1
  positions in direct lattice
  No initial velocities read in
 exchange correlation table for  LEXCH =        8
   RHO(1)=    0.500       N(1)  =     2000
   RHO(2)=  100.500       N(2)  =     4000
 


--------------------------------------------------------------------------------------------------------


 ion  position               nearest neighbor table
   1  0.000  0.000  0.000-
 

IMPORTANT INFORMATION: All symmetrisations will be switched off!
NOSYMM: (Re-)initialisation of all symmetry stuff for point group C_1.


----------------------------------------------------------------------------------------

                                     Primitive cell                                     

  volume of cell :    5929.5600

  direct lattice vectors                    reciprocal lattice vectors
    18.000000000  0.000000000  0.000000000     0.055555556 -0.000000000  0.000000000
     0.000000000 18.100000000  0.000000000     0.000000000  0.055248619  0.000000000
     0.000000000  0.000000000 18.200000000    -0.000000000 -0.000000000  0.054945055

  length of vectors
    18.000000000 18.100000000 18.200000000     0.055555556  0.055248619  0.054945055

  position of ions in fractional coordinates (direct lattice)
     0.000000000  0.000000000  0.000000000

  ion indices of the primitive-cell ions
   primitive index   ion index
                 1           1

----------------------------------------------------------------------------------------

 
 
 KPOINTS: Automatic kpoint scheme                 

Automatic generation of k-mesh.
 Grid dimensions read from file:
 generate k-points for:    1    1    1

 Generating k-lattice:

  Cartesian coordinates                     Fractional coordinates (reciprocal lattice)
     0.055555556 -0.000000000  0.000000000     1.000000000 -0.000000000  0.000000000
     0.000000000  0.055248619  0.000000000     0.000000000  1.000000000  0.000000000
    -0.000000000 -0.000000000  0.054945055    -0.000000000 -0.000000000  1.000000000

  Length of vectors
     0.055555556  0.055248619  0.054945055

  Shift w.r.t. Gamma in fractional coordinates (k-lattice)
     0.000000000  0.000000000  0.000000000

 
 Subroutine IBZKPT returns following result:
 ===========================================
 
 Found      1 irreducible k-points:
 
 Following reciprocal coordinates:
            Coordinates               Weight
  0.000000  0.000000  0.000000      1.000000
 
 Following cartesian coordinates:
            Coordinates               Weight
  0.000000  0.000000  0.000000      1.000000
 


--------------------------------------------------------------------------------------------------------




 Dimension of arrays:
   k-points           NKPTS =      1   k-points in BZ     NKDIM =      1   number of bands    NBANDS=      8
   number of dos      NEDOS =    301   number of ions     NIONS =      1
   non local maximal  LDIM  =      4   non local SUM 2l+1 LMDIM =      8
   total plane-waves  NPLWV = ******
   max r-space proj   IRMAX =      1   max aug-charges    IRDMAX=   6203
   dimension x,y,z NGX =   140 NGY =  140 NGZ =  140
   dimension x,y,z NGXF=   280 NGYF=  280 NGZF=  280
   support grid    NGXF=   280 NGYF=  280 NGZF=  280
   ions per type =               1
   NGX,Y,Z   is equivalent  to a cutoff of  12.93, 12.86, 12.79 a.u.
   NGXF,Y,Z  is equivalent  to a cutoff of  25.86, 25.72, 25.58 a.u.

 SYSTEM =  O_atom_ispin1                           
 POSCAR =  O1                                      

 Startparameter for this run:
   NWRITE =      2    write-flag & timer
   PREC   = accura    normal or accurate (medium, high low for compatibility)
   ISTART =      0    job   : 0-new  1-cont  2-samecut
   ICHARG =      2    charge: 1-file 2-atom 10-const
   ISPIN  =      1    spin polarized calculation?
   LNONCOLLINEAR =      F non collinear calculations
   LSORBIT =      F    spin-orbit coupling
   INIWAV =      1    electr: 0-lowe 1-rand  2-diag
   LASPH  =      T    aspherical Exc in radial PAW
 Electronic Relaxation 1
   ENCUT  =  520.0 eV  38.22 Ry    6.18 a.u.  33.47 33.65 33.84*2*pi/ulx,y,z
   ENINI  =  520.0     initial cutoff
   ENAUG  =  605.4 eV  augmentation charge cutoff
   NELM   =    400;   NELMIN=  2; NELMDL= -5     # of ELM steps 
   EDIFF  = 0.1E-04   stopping-criterion for ELM
   LREAL  =      F    real-space projection
   NLSPLINE    = F    spline interpolate recip. space projectors
   LCOMPAT=      F    compatible to vasp.4.4
   GGA_COMPAT  = F    GGA compatible to vasp.4.4-vasp.4.6
   LMAXPAW     = -100 max onsite density
   LMAXMIX     =    6 max onsite mixed and CHGCAR
   VOSKOWN=      0    Vosko Wilk Nusair interpolation
   ROPT   =    0.00000
 Ionic relaxation
   EDIFFG = 0.1E-03   stopping-criterion for IOM
   NSW    =      0    number of steps for IOM
   NBLOCK =      1;   KBLOCK =      1    inner block; outer block 
   IBRION =     -1    ionic relax: 0-MD 1-quasi-New 2-CG
   NFREE  =      0    steps in history (QN), initial steepest desc. (CG)
   ISIF   =      2    stress and relaxation
   IWAVPR =     10    prediction:  0-non 1-charg 2-wave 3-comb
   ISYM   =      0    0-nonsym 1-usesym 2-fastsym
   LCORR  =      T    Harris-Foulkes like correction to forces

   POTIM  = 0.5000    time-step for ionic-motion
   TEIN   =    0.0    initial temperature
   TEBEG  =    0.0;   TEEND  =   0.0 temperature during run
   SMASS  =  -3.00    Nose mass-parameter (am)
   estimated Nose-frequenzy (Omega)   =  0.10E-29 period in steps = 0.13E+47 mass=  -0.740E-26a.u.
   SCALEE = 1.0000    scale energy and forces
   NPACO  =    256;   APACO  = 10.0  distance and # of slots for P.C.
   PSTRESS=    0.0 pullay stress

  Mass of Ions in am
   POMASS =  16.00
  Ionic Valenz
   ZVAL   =   6.00
  Atomic Wigner-Seitz radii
   RWIGS  =  -1.00
  virtual crystal weights 
   VCA    =   1.00
   NELECT =       6.0000    total number of electrons
   NUPDOWN=      -1.0000    fix difference up-down

 DOS related values:
   EMIN   =  10.00;   EMAX   =-10.00  energy-range for DOS
   EFERMI =   0.00;   METHOD = MIDGAP      
   ISMEAR =     0;   SIGMA  =   0.05  broadening in eV -4-tet -1-fermi 0-gaus

 Electronic relaxation 2 (details)
   IALGO  =     38    algorithm
   LDIAG  =      T    sub-space diagonalisation (order eigenvalues)
   LSUBROT=      F    optimize rotation matrix (better conditioning)
   TURBO    =      0    0=normal 1=particle mesh
   IRESTART =      0    0=no restart 2=restart with 2 vectors
   NREBOOT  =      0    no. of reboots
   NMIN     =      0    reboot dimension
   EREF     =   0.00    reference energy to select bands
   IMIX   =      4    mixing-type and parameters
     AMIX     =   0.40;   BMIX     =  1.00
     AMIX_MAG =   1.60;   BMIX_MAG =  1.00
     AMIN     =   0.10
     WC   =   100.;   INIMIX=   1;  MIXPRE=   1;  MAXMIX= -45

 Intra band minimization:
   WEIMIN = 0.0000     energy-eigenvalue tresh-hold
   EBREAK =  0.31E-06  absolut break condition
   DEPER  =   0.30     relativ break condition  

   TIME   =   0.40     timestep for ELM

  volume/ion in A,a.u.               =    5929.56     40014.65
  Fermi-wavevector in a.u.,A,eV,Ry     =   0.164356  0.310587  0.367531  0.027013
  Thomas-Fermi vector in A             =   0.864462
 
 Write flags
   LWAVE        =      F    write WAVECAR
   LDOWNSAMPLE  =      F    k-point downsampling of WAVECAR
   LCHARG       =      F    write CHGCAR
   LVTOT        =      F    write LOCPOT, total local potential
   LVHAR        =      F    write LOCPOT, Hartree potential only
   LELF         =      F    write electronic localiz. function (ELF)
   LORBIT       =      0    0 simple, 1 ext, 2 COOP (PROOUT), +10 PAW based schemes


 Dipole corrections
   LMONO  =      F    monopole corrections only (constant potential shift)
   LDIPOL =      F    correct potential (dipole corrections)
   IDIPOL =      0    1-x, 2-y, 3-z, 4-all directions 
   EPSILON=  1.0000000 bulk dielectric constant

 Exchange correlation treatment:
   GGA     =    PE    GGA type
   LEXCH   =     8    internal setting for exchange type
   LIBXC   =     F    Libxc                    
   VOSKOWN =     0    Vosko Wilk Nusair interpolation
   LHFCALC =     F    Hartree Fock is set to
   LHFONE  =     F    Hartree Fock one center treatment
   AEXX    =    0.0000 exact exchange contribution

 Linear response parameters
   LEPSILON=     F    determine dielectric tensor
   LRPA    =     F    only Hartree local field effects (RPA)
   LNABLA  =     F    use nabla operator in PAW spheres
   LVEL    =     F    velocity operator in full k-point grid
   CSHIFT  =0.1000    complex shift for real part using Kramers Kronig
   OMEGAMAX=  -1.0    maximum frequency
   DEG_THRESHOLD= 0.2000000E-02 threshold for treating states as degnerate
   RTIME   =   -0.100 relaxation time in fs
  (WPLASMAI=    0.000 imaginary part of plasma frequency in eV, 0.658/RTIME)
   DFIELD  = 0.0000000 0.0000000 0.0000000 field for delta impulse in time
 
  Optional k-point grid parameters
   LKPOINTS_OPT  =     F    use optional k-point grid
   KPOINTS_OPT_MODE=     1    mode for optional k-point grid
 
 Orbital magnetization related:
   ORBITALMAG=     F  switch on orbital magnetization
   LCHIMAG   =     F  perturbation theory with respect to B field
   DQ        =  0.001000  dq finite difference perturbation B field
   LLRAUG    =     F  two centre corrections for induced B field
   LBONE     =     F  B-component reconstruction in AE one-centre
   LVGVCALC  =     T  calculate vGv susceptibility
   LVGVAPPL  =     F  apply vGv susceptibility instead of pGv for G=0

 Random number generation:
   RANDOM_GENERATOR = DEFAULT
   PCG_SEED         = not used


--------------------------------------------------------------------------------------------------------


 Static calculation
 charge density and potential will be updated during run
 non-spin polarized calculation
 Variant of blocked Davidson
 Davidson routine will perform the subspace rotation
 perform sub-space diagonalisation
    after iterative eigenvector-optimisation
 modified Broyden-mixing scheme, WC =      100.0
 initial mixing is a Kerker type mixing with AMIX =  0.4000 and BMIX =      1.0000
 Hartree-type preconditioning will be used
 using additional bands            5
 reciprocal scheme for non local part
 use partial core corrections
 calculate Harris-corrections to forces 
   (improved forces if not selfconsistent)
 use gradient corrections 
 use of overlap-Matrix (Vanderbilt PP)
 Gauss-broadening in eV      SIGMA  =   0.05


--------------------------------------------------------------------------------------------------------


  energy-cutoff  :      520.00
  volume of cell :     5929.56
      direct lattice vectors                 reciprocal lattice vectors
    18.000000000  0.000000000  0.000000000     0.055555556 -0.000000000  0.000000000
     0.000000000 18.100000000  0.000000000     0.000000000  0.055248619  0.000000000
     0.000000000  0.000000000 18.200000000    -0.000000000 -0.000000000  0.054945055

  length of vectors
    18.000000000 18.100000000 18.200000000     0.055555556  0.055248619  0.054945055


 
 k-points in units of 2pi/SCALE and weight: Automatic kpoint scheme                 
   0.00000000  0.00000000  0.00000000       1.000
 
 k-points in reciprocal lattice and weights: Automatic kpoint scheme                 
   0.00000000  0.00000000  0.00000000       1.000
 
 position of ions in fractional coordinates (direct lattice) 
   0.00000000  0.00000000  0.00000000
 
 position of ions in cartesian coordinates  (Angst):
   0.00000000  0.00000000  0.00000000
 


--------------------------------------------------------------------------------------------------------


 use parallel FFT for orbitals z direction half grid
 k-point   1 :   0.0000 0.0000 0.0000  plane waves:   79868

 maximum and minimum number of plane-waves per node :      2508     2479

 maximum number of plane-waves:     79868
 maximum index in each direction: 
   IXMAX=   33   IYMAX=   33   IZMAX=   33
   IXMIN=  -33   IYMIN=  -33   IZMIN=    0


 parallel 3D FFT for wavefunctions:
    minimum data exchange during FFTs selected (reduces bandwidth)
 parallel 3D FFT for charge:
    minimum data exchange during FFTs selected (reduces bandwidth)


 total amount of memory used by VASP MPI-rank0    68130. kBytes
=======================================================================

   base      :      30000. kBytes
   nonl-proj :        198. kBytes
   fftplans  :      14937. kBytes
   grid      :      22836. kBytes
   one-center:          1. kBytes
   wavefun   :        158. kBytes
 
     INWAV:  cpu time      0.0000: real time      0.0000
 Broyden mixing: mesh for mixing (old mesh)
   NGX = 67   NGY = 67   NGZ = 67
  (NGX  =280   NGY  =280   NGZ  =280)
  gives a total of 300763 points

 initial charge density was supplied:
 charge density of overlapping atoms calculated
 number of electron       6.0000000 magnetization 
 keeping initial charge density in first step


--------------------------------------------------------------------------------------------------------


 Maximum index for augmentation-charges          385 (set IRDMAX)


--------------------------------------------------------------------------------------------------------


 First call to EWALD:  gamma=   0.098
 Maximum number of real-space cells 3x 3x 3
 Maximum number of reciprocal cells 3x 3x 3

    FEWALD:  cpu time      0.0019: real time      0.0020


--------------------------------------- Ionic step        1  -------------------------------------------




--------------------------------------- Iteration      1(   1)  ---------------------------------------


    POTLOK:  cpu time      0.2254: real time      0.2274
    SETDIJ:  cpu time      0.0456: real time      0.0459
     EDDAV:  cpu time      0.0491: real time      0.0495
       DOS:  cpu time      0.0004: real time      0.0004
    --------------------------------------------
      LOOP:  cpu time      0.3206: real time      0.3232

 eigenvalue-minimisations  :    16
 total energy-change (2. order) : 0.4752648E+02  (-0.6982088E+02)
 number of electron       6.0000000 magnetization 
 augmentation part        6.0000000 magnetization 

 Free energy of the ion-electron system (eV)
  ---------------------------------------------------
  alpha Z        PSCENC =         0.02343419
  Ewald energy   TEWEN  =       -40.62990779
  -Hartree energ DENC   =      -332.08280900
  -exchange      EXHF   =         0.00000000
  -V(xc)+E(xc)   XCENC  =        26.06853542
  PAW double counting   =       346.54947689     -348.34814756
  entropy T*S    EENTRO =        -0.01405253
  eigenvalues    EBANDS =       -36.39803454
  atomic energy  EATOM  =       432.35798652
  Solvation  Ediel_sol  =         0.00000000
  ---------------------------------------------------
  free energy    TOTEN  =        47.52648162 eV

  energy without entropy =       47.54053415  energy(sigma->0) =       47.53350788


--------------------------------------------------------------------------------------------------------




--------------------------------------- Iteration      1(   2)  ---------------------------------------


     EDDAV:  cpu time      0.0460: real time      0.0474
       DOS:  cpu time      0.0003: real time      0.0003
    --------------------------------------------
      LOOP:  cpu time      0.0463: real time      0.0477

 eigenvalue-minimisations  :    16
 total energy-change (2. order) :-0.1075304E+02  (-0.1074370E+02)
 number of electron       6.0000000 magnetization 
 augmentation part        6.0000000 magnetization 

 Free energy of the ion-electron system (eV)
  ---------------------------------------------------
  alpha Z        PSCENC =         0.02343419
  Ewald energy   TEWEN  =       -40.62990779
  -Hartree energ DENC   =      -332.08280900
  -exchange      EXHF   =         0.00000000
  -V(xc)+E(xc)   XCENC  =        26.06853542
  PAW double counting   =       346.54947689     -348.34814756
  entropy T*S    EENTRO =        -0.00014336
  eigenvalues    EBANDS =       -47.16498682
  atomic energy  EATOM  =       432.35798652
  Solvation  Ediel_sol  =         0.00000000
  ---------------------------------------------------
  free energy    TOTEN  =        36.77343851 eV

  energy without entropy =       36.77358186  energy(sigma->0) =       36.77351019


--------------------------------------------------------------------------------------------------------




--------------------------------------- Iteration      1(   3)  ---------------------------------------


     EDDAV:  cpu time      0.0766: real time      0.0773
       DOS:  cpu time      0.0002: real time      0.0002
    --------------------------------------------
      LOOP:  cpu time      0.0768: real time      0.0775

 eigenvalue-minimisations  :    32
 total energy-change (2. order) :-0.2124848E+02  (-0.2124806E+02)
 number of electron       6.0000000 magnetization 
 augmentation part        6.0000000 magnetization 

 Free energy of the ion-electron system (eV)
  ---------------------------------------------------
  alpha Z        PSCENC =         0.02343419
  Ewald energy   TEWEN  =       -40.62990779
  -Hartree energ DENC   =      -332.08280900
  -exchange      EXHF   =         0.00000000
  -V(xc)+E(xc)   XCENC  =        26.06853542
  PAW double counting   =       346.54947689     -348.34814756
  entropy T*S    EENTRO =        -0.00000000
  eigenvalues    EBANDS =       -68.41361148
  atomic energy  EATOM  =       432.35798652
  Solvation  Ediel_sol  =         0.00000000
  ---------------------------------------------------
  free energy    TOTEN  =        15.52495720 eV

  energy without entropy =       15.52495720  energy(sigma->0) =       15.52495720


--------------------------------------------------------------------------------------------------------




--------------------------------------- Iteration      1(   4)  ---------------------------------------


     EDDAV:  cpu time      0.0458: real time      0.0462
       DOS:  cpu time      0.0005: real time      0.0005
    --------------------------------------------
      LOOP:  cpu time      0.0463: real time      0.0468

 eigenvalue-minimisations  :    16
 total energy-change (2. order) :-0.1488616E+02  (-0.1488229E+02)
 number of electron       6.0000000 magnetization 
 augmentation part        6.0000000 magnetization 

 Free energy of the ion-electron system (eV)
  ---------------------------------------------------
  alpha Z        PSCENC =         0.02343419
  Ewald energy   TEWEN  =       -40.62990779
  -Hartree energ DENC   =      -332.08280900
  -exchange      EXHF   =         0.00000000
  -V(xc)+E(xc)   XCENC  =        26.06853542
  PAW double counting   =       346.54947689     -348.34814756
  entropy T*S    EENTRO =        -0.01822770
  eigenvalues    EBANDS =       -83.28154366
  atomic energy  EATOM  =       432.35798652
  Solvation  Ediel_sol  =         0.00000000
  ---------------------------------------------------
  free energy    TOTEN  =         0.63879732 eV

  energy without entropy =        0.65702502  energy(sigma->0) =        0.64791117


--------------------------------------------------------------------------------------------------------




--------------------------------------- Iteration      1(   5)  ---------------------------------------


     EDDAV:  cpu time      0.0458: real time      0.0461
       DOS:  cpu time      0.0003: real time      0.0003
    CHARGE:  cpu time      0.0212: real time      0.0213
    MIXING:  cpu time      0.0048: real time      0.0048
    --------------------------------------------
      LOOP:  cpu time      0.0721: real time      0.0726

 eigenvalue-minimisations  :    16
 total energy-change (2. order) :-0.7186769E+00  (-0.6614792E+00)
 number of electron       6.0000004 magnetization 
 augmentation part        0.5106127 magnetization 

 Broyden mixing:
  rms(total) = 0.16452E-01    rms(broyden)= 0.16144E-01
  rms(prec ) = 0.16875E-01
  weight for this iteration     100.00

 Free energy of the ion-electron system (eV)
  ---------------------------------------------------
  alpha Z        PSCENC =         0.02343419
  Ewald energy   TEWEN  =       -40.62990779
  -Hartree energ DENC   =      -332.08280900
  -exchange      EXHF   =         0.00000000
  -V(xc)+E(xc)   XCENC  =        26.06853542
  PAW double counting   =       346.54947689     -348.34814756
  entropy T*S    EENTRO =        -0.07711344
  eigenvalues    EBANDS =       -83.94133484
  atomic energy  EATOM  =       432.35798652
  Solvation  Ediel_sol  =         0.00000000
  ---------------------------------------------------
  free energy    TOTEN  =        -0.07987959 eV

  energy without entropy =       -0.00276615  energy(sigma->0) =       -0.04132287


--------------------------------------------------------------------------------------------------------




--------------------------------------- Iteration      1(   6)  ---------------------------------------


    POTLOK:  cpu time      0.2192: real time      0.2209
    SETDIJ:  cpu time      0.0453: real time      0.0455
     EDDAV:  cpu time      0.0622: real time      0.0626
       DOS:  cpu time      0.0004: real time      0.0004
    CHARGE:  cpu time      0.0204: real time      0.0206
    MIXING:  cpu time      0.0049: real time      0.0049
    --------------------------------------------
      LOOP:  cpu time      0.3524: real time      0.3549

 eigenvalue-minimisations  :    24
 total energy-change (2. order) :-0.1067523E-01  (-0.1048963E-01)
 number of electron       6.0000004 magnetization 
 augmentation part        0.5121347 magnetization 

 Broyden mixing:
  rms(total) = 0.11301E+00    rms(broyden)= 0.11276E+00
  rms(prec ) = 0.11666E+00
  weight for this iteration     100.00

 eigenvalues of (default mixing * dielectric matrix)
  average eigenvalue GAMMA=   0.1165
  0.1165

 Free energy of the ion-electron system (eV)
  ---------------------------------------------------
  alpha Z        PSCENC =         0.02343419
  Ewald energy   TEWEN  =       -40.62990779
  -Hartree energ DENC   =      -331.93185716
  -exchange      EXHF   =         0.00000000
  -V(xc)+E(xc)   XCENC  =        26.05877341
  PAW double counting   =       346.45445683     -348.25591229
  entropy T*S    EENTRO =        -0.07630091
  eigenvalues    EBANDS =       -84.09122763
  atomic energy  EATOM  =       432.35798652
  Solvation  Ediel_sol  =         0.00000000
  ---------------------------------------------------
  free energy    TOTEN  =        -0.09055482 eV

  energy without entropy =       -0.01425391  energy(sigma->0) =       -0.05240437


--------------------------------------------------------------------------------------------------------




--------------------------------------- Iteration      1(   7)  ---------------------------------------


    POTLOK:  cpu time      0.2204: real time      0.2221
    SETDIJ:  cpu time      0.0452: real time      0.0454
     EDDAV:  cpu time      0.0639: real time      0.0644
       DOS:  cpu time      0.0003: real time      0.0003
    CHARGE:  cpu time      0.0203: real time      0.0203
    MIXING:  cpu time      0.0068: real time      0.0069
    --------------------------------------------
      LOOP:  cpu time      0.3570: real time      0.3595

 eigenvalue-minimisations  :    24
 total energy-change (2. order) : 0.3792812E-02  (-0.5170522E-04)
 number of electron       6.0000004 magnetization 
 augmentation part        0.5122782 magnetization 

 Broyden mixing:
  rms(total) = 0.13514E-01    rms(broyden)= 0.12730E-01
  rms(prec ) = 0.13228E-01
  weight for this iteration     100.00

 eigenvalues of (default mixing * dielectric matrix)
  average eigenvalue GAMMA=   0.3411
  0.5491  0.1330

 Free energy of the ion-electron system (eV)
  ---------------------------------------------------
  alpha Z        PSCENC =         0.02343419
  Ewald energy   TEWEN  =       -40.62990779
  -Hartree energ DENC   =      -331.94296604
  -exchange      EXHF   =         0.00000000
  -V(xc)+E(xc)   XCENC  =        26.06198203
  PAW double counting   =       346.50139464     -348.30319707
  entropy T*S    EENTRO =        -0.07712210
  eigenvalues    EBANDS =       -84.07836640
  atomic energy  EATOM  =       432.35798652
  Solvation  Ediel_sol  =         0.00000000
  ---------------------------------------------------
  free energy    TOTEN  =        -0.08676201 eV

  energy without entropy =       -0.00963991  energy(sigma->0) =       -0.04820096


--------------------------------------------------------------------------------------------------------




--------------------------------------- Iteration      1(   8)  ---------------------------------------


    POTLOK:  cpu time      0.2224: real time      0.2242
    SETDIJ:  cpu time      0.0452: real time      0.0454
     EDDAV:  cpu time      0.0486: real time      0.0490
       DOS:  cpu time      0.0004: real time      0.0003
    CHARGE:  cpu time      0.0205: real time      0.0207
    MIXING:  cpu time      0.0044: real time      0.0045
    --------------------------------------------
      LOOP:  cpu time      0.3415: real time      0.3441

 eigenvalue-minimisations  :    16
 total energy-change (2. order) :-0.2565561E-02  (-0.1933087E-04)
 number of electron       6.0000004 magnetization 
 augmentation part        0.5120300 magnetization 

 Broyden mixing:
  rms(total) = 0.12292E-01    rms(broyden)= 0.12202E-01
  rms(prec ) = 0.12641E-01
  weight for this iteration     100.00

 eigenvalues of (default mixing * dielectric matrix)
  average eigenvalue GAMMA=   0.3291
  0.6824  0.1268  0.1782

 Free energy of the ion-electron system (eV)
  ---------------------------------------------------
  alpha Z        PSCENC =         0.02343419
  Ewald energy   TEWEN  =       -40.62990779
  -Hartree energ DENC   =      -331.99793369
  -exchange      EXHF   =         0.00000000
  -V(xc)+E(xc)   XCENC  =        26.06366083
  PAW double counting   =       346.71636959     -348.52010856
  entropy T*S    EENTRO =        -0.07712194
  eigenvalues    EBANDS =       -84.02570672
  atomic energy  EATOM  =       432.35798652
  Solvation  Ediel_sol  =         0.00000000
  ---------------------------------------------------
  free energy    TOTEN  =        -0.08932757 eV

  energy without entropy =       -0.01220563  energy(sigma->0) =       -0.05076660


--------------------------------------------------------------------------------------------------------




--------------------------------------- Iteration      1(   9)  ---------------------------------------


    POTLOK:  cpu time      0.2257: real time      0.2275
    SETDIJ:  cpu time      0.0453: real time      0.0455
     EDDAV:  cpu time      0.0790: real time      0.0797
       DOS:  cpu time      0.0004: real time      0.0004
    CHARGE:  cpu time      0.0205: real time      0.0206
    MIXING:  cpu time      0.0046: real time      0.0046
    --------------------------------------------
      LOOP:  cpu time      0.3754: real time      0.3783

 eigenvalue-minimisations  :    32
 total energy-change (2. order) :-0.2756911E-03  (-0.9882764E-05)
 number of electron       6.0000004 magnetization 
 augmentation part        0.5119454 magnetization 

 Broyden mixing:
  rms(total) = 0.68555E-02    rms(broyden)= 0.68069E-02
  rms(prec ) = 0.70543E-02
  weight for this iteration     100.00

 eigenvalues of (default mixing * dielectric matrix)
  average eigenvalue GAMMA=   0.7213
  1.8232  0.8010  0.1331  0.1281

 Free energy of the ion-electron system (eV)
  ---------------------------------------------------
  alpha Z        PSCENC =         0.02343419
  Ewald energy   TEWEN  =       -40.62990779
  -Hartree energ DENC   =      -332.01434610
  -exchange      EXHF   =         0.00000000
  -V(xc)+E(xc)   XCENC  =        26.06451569
  PAW double counting   =       346.79159370     -348.59594798
  entropy T*S    EENTRO =        -0.07712849
  eigenvalues    EBANDS =       -84.00980301
  atomic energy  EATOM  =       432.35798652
  Solvation  Ediel_sol  =         0.00000000
  ---------------------------------------------------
  free energy    TOTEN  =        -0.08960326 eV

  energy without entropy =       -0.01247477  energy(sigma->0) =       -0.05103902


--------------------------------------------------------------------------------------------------------




--------------------------------------- Iteration      1(  10)  ---------------------------------------


    POTLOK:  cpu time      0.2313: real time      0.2331
    SETDIJ:  cpu time      0.0453: real time      0.0455
     EDDAV:  cpu time      0.0636: real time      0.0639
       DOS:  cpu time      0.0004: real time      0.0004
    CHARGE:  cpu time      0.0203: real time      0.0205
    MIXING:  cpu time      0.0047: real time      0.0047
    --------------------------------------------
      LOOP:  cpu time      0.3655: real time      0.3681

 eigenvalue-minimisations  :    24
 total energy-change (2. order) :-0.2423489E-03  (-0.1373426E-04)
 number of electron       6.0000004 magnetization 
 augmentation part        0.5116825 magnetization 

 Broyden mixing:
  rms(total) = 0.53315E-02    rms(broyden)= 0.52706E-02
  rms(prec ) = 0.54492E-02
  weight for this iteration     100.00

 eigenvalues of (default mixing * dielectric matrix)
  average eigenvalue GAMMA=   0.6186
  1.8807  0.7760  0.1297  0.1297  0.1771

 Free energy of the ion-electron system (eV)
  ---------------------------------------------------
  alpha Z        PSCENC =         0.02343419
  Ewald energy   TEWEN  =       -40.62990779
  -Hartree energ DENC   =      -332.07825917
  -exchange      EXHF   =         0.00000000
  -V(xc)+E(xc)   XCENC  =        26.06867316
  PAW double counting   =       347.18568782     -348.99286354
  entropy T*S    EENTRO =        -0.07712942
  eigenvalues    EBANDS =       -83.94746738
  atomic energy  EATOM  =       432.35798652
  Solvation  Ediel_sol  =         0.00000000
  ---------------------------------------------------
  free energy    TOTEN  =        -0.08984561 eV

  energy without entropy =       -0.01271619  energy(sigma->0) =       -0.05128090


--------------------------------------------------------------------------------------------------------




--------------------------------------- Iteration      1(  11)  ---------------------------------------


    POTLOK:  cpu time      0.2644: real time      0.2664
    SETDIJ:  cpu time      0.0452: real time      0.0455
     EDDAV:  cpu time      0.0782: real time      0.0789
       DOS:  cpu time      0.0004: real time      0.0004
    CHARGE:  cpu time      0.0210: real time      0.0212
    MIXING:  cpu time      0.0046: real time      0.0047
    --------------------------------------------
      LOOP:  cpu time      0.4139: real time      0.4170

 eigenvalue-minimisations  :    32
 total energy-change (2. order) :-0.3216284E-04  (-0.1426997E-05)
 number of electron       6.0000004 magnetization 
 augmentation part        0.5116835 magnetization 

 Broyden mixing:
  rms(total) = 0.37976E-02    rms(broyden)= 0.37745E-02
  rms(prec ) = 0.39014E-02
  weight for this iteration     100.00

 eigenvalues of (default mixing * dielectric matrix)
  average eigenvalue GAMMA=   0.8601
  2.5328  1.2558  0.9871  0.1337  0.1265  0.1248

 Free energy of the ion-electron system (eV)
  ---------------------------------------------------
  alpha Z        PSCENC =         0.02343419
  Ewald energy   TEWEN  =       -40.62990779
  -Hartree energ DENC   =      -332.07915500
  -exchange      EXHF   =         0.00000000
  -V(xc)+E(xc)   XCENC  =        26.06870475
  PAW double counting   =       347.20353540     -349.01079611
  entropy T*S    EENTRO =        -0.07713030
  eigenvalues    EBANDS =       -83.94654946
  atomic energy  EATOM  =       432.35798652
  Solvation  Ediel_sol  =         0.00000000
  ---------------------------------------------------
  free energy    TOTEN  =        -0.08987777 eV

  energy without entropy =       -0.01274747  energy(sigma->0) =       -0.05131262


--------------------------------------------------------------------------------------------------------




--------------------------------------- Iteration      1(  12)  ---------------------------------------


    POTLOK:  cpu time      0.2307: real time      0.2326
    SETDIJ:  cpu time      0.0452: real time      0.0454
     EDDAV:  cpu time      0.0637: real time      0.0642
       DOS:  cpu time      0.0003: real time      0.0003
    CHARGE:  cpu time      0.0204: real time      0.0205
    MIXING:  cpu time      0.0049: real time      0.0049
    --------------------------------------------
      LOOP:  cpu time      0.3652: real time      0.3679

 eigenvalue-minimisations  :    24
 total energy-change (2. order) :-0.2328930E-04  (-0.1907869E-05)
 number of electron       6.0000004 magnetization 
 augmentation part        0.5117322 magnetization 

 Broyden mixing:
  rms(total) = 0.19201E-02    rms(broyden)= 0.18979E-02
  rms(prec ) = 0.19640E-02
  weight for this iteration     100.00

 eigenvalues of (default mixing * dielectric matrix)
  average eigenvalue GAMMA=   0.7932
  2.5423  1.2695  0.9814  0.3728  0.1329  0.1277  0.1260

 Free energy of the ion-electron system (eV)
  ---------------------------------------------------
  alpha Z        PSCENC =         0.02343419
  Ewald energy   TEWEN  =       -40.62990779
  -Hartree energ DENC   =      -332.07414074
  -exchange      EXHF   =         0.00000000
  -V(xc)+E(xc)   XCENC  =        26.06825003
  PAW double counting   =       347.31339568     -349.12096993
  entropy T*S    EENTRO =        -0.07713092
  eigenvalues    EBANDS =       -83.95081811
  atomic energy  EATOM  =       432.35798652
  Solvation  Ediel_sol  =         0.00000000
  ---------------------------------------------------
  free energy    TOTEN  =        -0.08990106 eV

  energy without entropy =       -0.01277014  energy(sigma->0) =       -0.05133560


--------------------------------------------------------------------------------------------------------




--------------------------------------- Iteration      1(  13)  ---------------------------------------


    POTLOK:  cpu time      0.2222: real time      0.2240
    SETDIJ:  cpu time      0.0451: real time      0.0454
     EDDAV:  cpu time      0.0771: real time      0.0777
       DOS:  cpu time      0.0004: real time      0.0004
    CHARGE:  cpu time      0.0207: real time      0.0209
    MIXING:  cpu time      0.0052: real time      0.0052
    --------------------------------------------
      LOOP:  cpu time      0.3707: real time      0.3735

 eigenvalue-minimisations  :    32
 total energy-change (2. order) :-0.1395397E-04  (-0.1060685E-06)
 number of electron       6.0000004 magnetization 
 augmentation part        0.5117335 magnetization 

 Broyden mixing:
  rms(total) = 0.94657E-03    rms(broyden)= 0.94461E-03
  rms(prec ) = 0.97817E-03
  weight for this iteration     100.00

 eigenvalues of (default mixing * dielectric matrix)
  average eigenvalue GAMMA=   0.8034
  2.5497  1.3327  1.0102  1.0102  0.1256  0.1277  0.1327  0.1383

 Free energy of the ion-electron system (eV)
  ---------------------------------------------------
  alpha Z        PSCENC =         0.02343419
  Ewald energy   TEWEN  =       -40.62990779
  -Hartree energ DENC   =      -332.07459212
  -exchange      EXHF   =         0.00000000
  -V(xc)+E(xc)   XCENC  =        26.06824302
  PAW double counting   =       347.31444980     -349.12202676
  entropy T*S    EENTRO =        -0.07713110
  eigenvalues    EBANDS =       -83.95037078
  atomic energy  EATOM  =       432.35798652
  Solvation  Ediel_sol  =         0.00000000
  ---------------------------------------------------
  free energy    TOTEN  =        -0.08991502 eV

  energy without entropy =       -0.01278392  energy(sigma->0) =       -0.05134947


--------------------------------------------------------------------------------------------------------




--------------------------------------- Iteration      1(  14)  ---------------------------------------


    POTLOK:  cpu time      0.2362: real time      0.2381
    SETDIJ:  cpu time      0.0451: real time      0.0453
     EDDAV:  cpu time      0.0635: real time      0.0640
       DOS:  cpu time      0.0003: real time      0.0003
    --------------------------------------------
      LOOP:  cpu time      0.3451: real time      0.3477

 eigenvalue-minimisations  :    24
 total energy-change (2. order) :-0.2164333E-05  (-0.9718413E-08)
 number of electron       6.0000004 magnetization 
 augmentation part        0.5117335 magnetization 

 Free energy of the ion-electron system (eV)
  ---------------------------------------------------
  alpha Z        PSCENC =         0.02343419
  Ewald energy   TEWEN  =       -40.62990779
  -Hartree energ DENC   =      -332.07504242
  -exchange      EXHF   =         0.00000000
  -V(xc)+E(xc)   XCENC  =        26.06825529
  PAW double counting   =       347.31393763     -349.12151310
  entropy T*S    EENTRO =        -0.07713116
  eigenvalues    EBANDS =       -83.94993634
  atomic energy  EATOM  =       432.35798652
  Solvation  Ediel_sol  =         0.00000000
  ---------------------------------------------------
  free energy    TOTEN  =        -0.08991718 eV

  energy without entropy =       -0.01278602  energy(sigma->0) =       -0.05135160


--------------------------------------------------------------------------------------------------------




 average (electrostatic) potential at core
  the test charge radii are     0.7215
  (the norm of the test charge is              1.0000)
       1 -83.5690
 
 
 
 E-fermi :  -8.9982     XC(G=0):  -0.0974     alpha+bet : -0.0126

 Fermi energy:        -8.9981846980

 k-point     1 :       0.0000    0.0000    0.0000
  band No.  band energies     occupation 
      1     -23.9481      2.00000
      2      -9.0134      1.33344
      3      -9.0134      1.33335
      4      -9.0134      1.33322
      5      -0.2105      0.00000
      6       0.1411      0.00000
      7       0.3970      0.00000
      8       0.4017      0.00000


--------------------------------------------------------------------------------------------------------


 soft charge-density along one line, spin component           1
         0         1         2         3         4         5         6         7         8         9
 total charge-density along one line
 
 pseudopotential strength for first ion, spin component:           1
 14.295 -17.562  -0.000   0.000  -0.000   0.000  -0.000   0.000
-17.562  21.611   0.000  -0.000   0.000  -0.000   0.000  -0.000
 -0.000   0.000 -11.139  -0.000   0.000  13.920   0.000  -0.000
  0.000  -0.000  -0.000 -11.139   0.000   0.000  13.920  -0.000
 -0.000   0.000   0.000   0.000 -11.139  -0.000  -0.000  13.920
  0.000  -0.000  13.920   0.000  -0.000 -17.346  -0.000   0.000
 -0.000   0.000   0.000  13.920  -0.000  -0.000 -17.346   0.000
  0.000  -0.000  -0.000  -0.000  13.920   0.000   0.000 -17.346
 total augmentation occupancy for first ion, spin component:           1
  2.043   0.017   0.000   0.000   0.000   0.000   0.000   0.000
  0.017   0.000  -0.000   0.000   0.000   0.000   0.000   0.000
  0.000  -0.000   1.328  -0.001  -0.000  -0.002   0.000   0.000
  0.000   0.000  -0.001   1.328   0.000   0.000  -0.002  -0.000
  0.000   0.000  -0.000   0.000   1.328   0.000  -0.000  -0.002
  0.000   0.000  -0.002   0.000   0.000   0.000  -0.000  -0.000
  0.000   0.000   0.000  -0.002  -0.000  -0.000   0.000  -0.000
  0.000   0.000   0.000  -0.000  -0.002  -0.000  -0.000   0.000


------------------------ aborting loop because EDIFF is reached ----------------------------------------


    CHARGE:  cpu time      0.0209: real time      0.0208
    FORLOC:  cpu time      0.0034: real time      0.0034
    FORNL :  cpu time      0.0006: real time      0.0006
    STRESS:  cpu time      0.0122: real time      0.0122
    FORCOR:  cpu time      0.2316: real time      0.2334
    FORHAR:  cpu time      0.0547: real time      0.0551
    MIXING:  cpu time      0.0061: real time      0.0061
    OFIELD:  cpu time      0.0000: real time      0.0000

  FORCE on cell =-STRESS in cart. coord.  units (eV):
  Direction    XX          YY          ZZ          XY          YZ          ZX
  --------------------------------------------------------------------------------------
  Alpha Z     0.02343     0.02343     0.02343
  Ewald     -13.31529   -13.54347   -13.77114     0.00000     0.00000     0.00000
  Hartree   110.92005   110.69420   110.46662    -0.00082    -0.00013    -0.00095
  E(xc)     -27.96091   -27.96090   -27.96090     0.00000    -0.00000     0.00000
  Local    -181.35913  -180.90647  -180.44802     0.00247     0.00043     0.00283
  n-local   -20.24167   -20.24187   -20.24110     0.00046     0.00008     0.00053
  augment     5.58926     5.58925     5.58880    -0.00018    -0.00004    -0.00020
  Kinetic   126.32174   126.32317   126.31999    -0.00160    -0.00029    -0.00184
  Fock        0.00000     0.00000     0.00000     0.00000     0.00000     0.00000
  -------------------------------------------------------------------------------------
  Total      -0.02252    -0.02265    -0.02232     0.00033     0.00005     0.00038
  in kB      -0.00608    -0.00612    -0.00603     0.00009     0.00001     0.00010
  external pressure =       -0.01 kB  Pullay stress =        0.00 kB


 VOLUME and BASIS-vectors are now :
 -----------------------------------------------------------------------------
  energy-cutoff  :      520.00
  volume of cell :     5929.56
      direct lattice vectors                 reciprocal lattice vectors
    18.000000000  0.000000000  0.000000000     0.055555556 -0.000000000  0.000000000
     0.000000000 18.100000000  0.000000000     0.000000000  0.055248619  0.000000000
     0.000000000  0.000000000 18.200000000    -0.000000000 -0.000000000  0.054945055

  length of vectors
    18.000000000 18.100000000 18.200000000     0.055555556  0.055248619  0.054945055


 FORCES acting on ions
    electron-ion (+dipol)            ewald-force                    non-local-force                 convergence-correction
 -----------------------------------------------------------------------------------------------
   0.308E-03 0.299E-03 -.409E-04   0.136E-16 0.133E-16 0.484E-17   0.690E-04 0.613E-04 -.364E-05   -.392E-03 -.378E-03 0.469E-04
 -----------------------------------------------------------------------------------------------
   0.308E-03 0.299E-03 -.409E-04   0.136E-16 0.133E-16 0.484E-17   0.690E-04 0.613E-04 -.364E-05   -.392E-03 -.378E-03 0.469E-04
 
 
 POSITION                                       TOTAL-FORCE (eV/Angst)
 -----------------------------------------------------------------------------------
      0.00000      0.00000      0.00000        -0.000014     -0.000018      0.000002
 -----------------------------------------------------------------------------------
    total drift:                               -0.000014     -0.000018      0.000002


--------------------------------------------------------------------------------------------------------



  FREE ENERGIE OF THE ION-ELECTRON SYSTEM (eV)
  ---------------------------------------------------
  free  energy   TOTEN  =        -0.08991718 eV

  energy  without entropy=       -0.01278602  energy(sigma->0) =       -0.05135160
 


--------------------------------------------------------------------------------------------------------


    POTLOK:  cpu time      0.2989: real time      0.3010


--------------------------------------------------------------------------------------------------------


     LOOP+:  cpu time      4.5238: real time      4.5607
    4ORBIT:  cpu time      0.0000: real time      0.0000

 total amount of memory used by VASP MPI-rank0    68130. kBytes
=======================================================================

   base      :      30000. kBytes
   nonl-proj :        198. kBytes
   fftplans  :      14937. kBytes
   grid      :      22836. kBytes
   one-center:          1. kBytes
   wavefun   :        158. kBytes
 
  
  
 General timing and accounting informations for this job:
 ========================================================
  
                  Total CPU time used (sec):        6.846
                            User time (sec):        5.792
                          System time (sec):        1.054
                         Elapsed time (sec):        7.458
  
                   Maximum memory used (kb):      456528.
                   Average memory used (kb):          N/A
  
                          Minor page faults:        68418
                          Major page faults:           35
                 Voluntary context switches:          635
