 vasp.6.4.2 20Jul23 (build Aug 07 2024 12:45:50) gamma-only                     
  
 executed on             LinuxIFC date 2026.09.30  12:18:07
 running   64 mpi-ranks, on    1 nodes
 distrk:  each k-point on   64 cores,    1 groups
 distr:  one band on NCORE=  32 cores,    2 groups


--------------------------------------------------------------------------------------------------------


 INCAR:
   ALGO = Normal
   EDIFF = 1e-05
   EFERMI = Midgap
   ENCUT = 520.0
   GGA = Pe
   GGA_COMPAT = False
   IBRION = -1
   ISMEAR = 0
   ISPIN = 2
   ISYM = 0
   LAECHG = False
   LASPH = True
   LCHARG = False
   LMAXMIX = 6
   LMIXTAU = True
   LREAL = False
   LWAVE = False
   MAGMOM = 1*1.0
   NCORE = 32
   NELM = 400
   NSW = 0
   PREC = Accurate
   SIGMA = 0.05
   SYSTEM = Al_atom_ispin2

 POTCAR:    PAW_PBE Al 04Jan2001                  
 -----------------------------------------------------------------------------
|                                                                             |
|           W    W    AA    RRRRR   N    N  II  N    N   GGGG   !!!           |
|           W    W   A  A   R    R  NN   N  II  NN   N  G    G  !!!           |
|           W    W  A    A  R    R  N N  N  II  N N  N  G       !!!           |
|           W WW W  AAAAAA  RRRRR   N  N N  II  N  N N  G  GGG   !            |
|           WW  WW  A    A  R   R   N   NN  II  N   NN  G    G                |
|           W    W  A    A  R    R  N    N  II  N    N   GGGG   !!!           |
|                                                                             |
|     For optimal performance we recommend to set                             |
|       NCORE = 2 up to number-of-cores-per-socket                            |
|     NCORE specifies how many cores store one orbital (NPAR=cpu/NCORE).      |
|     This setting can greatly improve the performance of VASP for DFT.       |
|     The default, NCORE=1 might be grossly inefficient on modern             |
|     multi-core architectures or massively parallel machines. Do your        |
|     own testing! More info at https://www.vasp.at/wiki/index.php/NCORE      |
|     Unfortunately you need to use the default for GW and RPA                |
|     calculations (for HF NCORE is supported but not extensively tested      |
|     yet).                                                                   |
|                                                                             |
 -----------------------------------------------------------------------------

 POTCAR:    PAW_PBE Al 04Jan2001                  
   SHA256 =  17880443556af62b473fe41b62a467bd001ad55d2cabe504a3f22e34d4e9db96 Al/POTCAR             
   COPYR  = (c) Copyright 04Jan2001 Georg Kresse                                                    
   COPYR  = This file is part of the software VASP. Any use, copying, and all other rights are regul
   COPYR  = If you do not have a valid VASP license, you may not use, copy or distribute this file. 
   VRHFIN =Al: s2p1                                                                                 
   LEXCH  = PE                                                                                      
   EATOM  =    53.5387 eV,    3.9350 Ry                                                             
                                                                                                    
   TITEL  = PAW_PBE Al 04Jan2001                                                                    
   LULTRA =        F    use ultrasoft PP ?                                                          
   IUNSCR =        1    unscreen: 0-lin 1-nonlin 2-no                                               
   RPACOR =    1.500    partial core radius                                                         
   POMASS =   26.981; ZVAL   =    3.000    mass and valenz                                          
   RCORE  =    1.900    outmost cutoff radius                                                       
   RWIGS  =    2.650; RWIGS  =    1.402    wigner-seitz radius (au A)                               
   ENMAX  =  240.300; ENMIN  =  180.225 eV                                                          
   ICORE  =        2    local potential                                                             
   LCOR   =        T    correct aug charges                                                         
   LPAW   =        T    paw PP                                                                      
   EAUG   =  291.052                                                                                
   DEXC   =    0.000                                                                                
   RMAX   =    1.939    core radius for proj-oper                                                   
   RAUG   =    1.300    factor for augmentation sphere                                              
   RDEP   =    1.966    radius for radial grids                                                     
   RDEPT  =    1.856    core radius for aug-charge                                                  
                                                                                                    
   Atomic configuration                                                                             
    6 entries                                                                                       
     n  l   j            E        occ.                                                              
     1  0  0.50     -1511.1048   2.0000                                                             
     2  0  0.50      -108.1629   2.0000                                                             
     2  1  1.50       -69.6402   6.0000                                                             
     3  0  0.50        -7.7528   2.0000                                                             
     3  1  1.50        -2.7121   1.0000                                                             
     3  2  2.50        -2.7212   0.0000                                                             
   Description                                                                                      
     l       E           TYP  RCUT    TYP  RCUT                                                     
     0     -7.7528455     23  1.900                                                                 
     0     -3.3096929     23  1.900                                                                 
     1     -2.7120682     23  1.900                                                                 
     1     13.6058260     23  1.900                                                                 
     2     -2.7211652      7  1.900                                                                 
  local pseudopotential read in
  partial core-charges read in
  partial kinetic energy density read in
  atomic valenz-charges read in
  non local Contribution for L=           0  read in
    real space projection operators read in
  non local Contribution for L=           0  read in
    real space projection operators read in
  non local Contribution for L=           1  read in
    real space projection operators read in
  non local Contribution for L=           1  read in
    real space projection operators read in
    PAW grid and wavefunctions read in
 
   number of l-projection  operators is LMAX  =           4
   number of lm-projection operators is LMMAX =           8
 
  PAW_PBE Al 04Jan2001                  :
 energy of atom  1       EATOM=  -53.5387
 kinetic energy error for atom=    0.0002 (will be added to EATOM!!)
 
 
 POSCAR: Al1
  positions in direct lattice
  No initial velocities read in
 exchange correlation table for  LEXCH =        8
   RHO(1)=    0.500       N(1)  =     2000
   RHO(2)=  100.500       N(2)  =     4000
 


--------------------------------------------------------------------------------------------------------


 ion  position               nearest neighbor table
   1  0.000  0.000  0.000-
 

IMPORTANT INFORMATION: All symmetrisations will be switched off!
NOSYMM: (Re-)initialisation of all symmetry stuff for point group C_1.


----------------------------------------------------------------------------------------

                                     Primitive cell                                     

  volume of cell :    3442.8000

  direct lattice vectors                    reciprocal lattice vectors
    15.000000000  0.000000000  0.000000000     0.066666667 -0.000000000  0.000000000
     0.000000000 15.100000000  0.000000000     0.000000000  0.066225166  0.000000000
     0.000000000  0.000000000 15.200000000    -0.000000000 -0.000000000  0.065789474

  length of vectors
    15.000000000 15.100000000 15.200000000     0.066666667  0.066225166  0.065789474

  position of ions in fractional coordinates (direct lattice)
     0.000000000  0.000000000  0.000000000

  ion indices of the primitive-cell ions
   primitive index   ion index
                 1           1

----------------------------------------------------------------------------------------

 
 
 KPOINTS: Automatic kpoint scheme                 

Automatic generation of k-mesh.
 Grid dimensions read from file:
 generate k-points for:    1    1    1

 Generating k-lattice:

  Cartesian coordinates                     Fractional coordinates (reciprocal lattice)
     0.066666667 -0.000000000  0.000000000     1.000000000 -0.000000000  0.000000000
     0.000000000  0.066225166  0.000000000     0.000000000  1.000000000  0.000000000
    -0.000000000 -0.000000000  0.065789474     0.000000000 -0.000000000  1.000000000

  Length of vectors
     0.066666667  0.066225166  0.065789474

  Shift w.r.t. Gamma in fractional coordinates (k-lattice)
     0.000000000  0.000000000  0.000000000

 
 Subroutine IBZKPT returns following result:
 ===========================================
 
 Found      1 irreducible k-points:
 
 Following reciprocal coordinates:
            Coordinates               Weight
  0.000000  0.000000  0.000000      1.000000
 
 Following cartesian coordinates:
            Coordinates               Weight
  0.000000  0.000000  0.000000      1.000000
 


--------------------------------------------------------------------------------------------------------




 Dimension of arrays:
   k-points           NKPTS =      1   k-points in BZ     NKDIM =      1   number of bands    NBANDS=      6
   number of dos      NEDOS =    301   number of ions     NIONS =      1
   non local maximal  LDIM  =      4   non local SUM 2l+1 LMDIM =      8
   total plane-waves  NPLWV = ******
   max r-space proj   IRMAX =      1   max aug-charges    IRDMAX=  17214
   dimension x,y,z NGX =   112 NGY =  112 NGZ =  120
   dimension x,y,z NGXF=   224 NGYF=  224 NGZF=  240
   support grid    NGXF=   224 NGYF=  224 NGZF=  240
   ions per type =               1
   NGX,Y,Z   is equivalent  to a cutoff of  12.41, 12.33, 13.12 a.u.
   NGXF,Y,Z  is equivalent  to a cutoff of  24.83, 24.66, 26.25 a.u.

 SYSTEM =  Al_atom_ispin2                          
 POSCAR =  Al1                                     

 Startparameter for this run:
   NWRITE =      2    write-flag & timer
   PREC   = accura    normal or accurate (medium, high low for compatibility)
   ISTART =      0    job   : 0-new  1-cont  2-samecut
   ICHARG =      2    charge: 1-file 2-atom 10-const
   ISPIN  =      2    spin polarized calculation?
   LNONCOLLINEAR =      F non collinear calculations
   LSORBIT =      F    spin-orbit coupling
   INIWAV =      1    electr: 0-lowe 1-rand  2-diag
   LASPH  =      T    aspherical Exc in radial PAW
 Electronic Relaxation 1
   ENCUT  =  520.0 eV  38.22 Ry    6.18 a.u.  27.89 28.08 28.26*2*pi/ulx,y,z
   ENINI  =  520.0     initial cutoff
   ENAUG  =  291.1 eV  augmentation charge cutoff
   NELM   =    400;   NELMIN=  2; NELMDL= -5     # of ELM steps 
   EDIFF  = 0.1E-04   stopping-criterion for ELM
   LREAL  =      F    real-space projection
   NLSPLINE    = F    spline interpolate recip. space projectors
   LCOMPAT=      F    compatible to vasp.4.4
   GGA_COMPAT  = F    GGA compatible to vasp.4.4-vasp.4.6
   LMAXPAW     = -100 max onsite density
   LMAXMIX     =    6 max onsite mixed and CHGCAR
   VOSKOWN=      0    Vosko Wilk Nusair interpolation
   ROPT   =    0.00000
 Ionic relaxation
   EDIFFG = 0.1E-03   stopping-criterion for IOM
   NSW    =      0    number of steps for IOM
   NBLOCK =      1;   KBLOCK =      1    inner block; outer block 
   IBRION =     -1    ionic relax: 0-MD 1-quasi-New 2-CG
   NFREE  =      0    steps in history (QN), initial steepest desc. (CG)
   ISIF   =      2    stress and relaxation
   IWAVPR =     10    prediction:  0-non 1-charg 2-wave 3-comb
   ISYM   =      0    0-nonsym 1-usesym 2-fastsym
   LCORR  =      T    Harris-Foulkes like correction to forces

   POTIM  = 0.5000    time-step for ionic-motion
   TEIN   =    0.0    initial temperature
   TEBEG  =    0.0;   TEEND  =   0.0 temperature during run
   SMASS  =  -3.00    Nose mass-parameter (am)
   estimated Nose-frequenzy (Omega)   =  0.10E-29 period in steps = 0.13E+47 mass=  -0.514E-26a.u.
   SCALEE = 1.0000    scale energy and forces
   NPACO  =    256;   APACO  = 10.0  distance and # of slots for P.C.
   PSTRESS=    0.0 pullay stress

  Mass of Ions in am
   POMASS =  26.98
  Ionic Valenz
   ZVAL   =   3.00
  Atomic Wigner-Seitz radii
   RWIGS  =  -1.00
  virtual crystal weights 
   VCA    =   1.00
   NELECT =       3.0000    total number of electrons
   NUPDOWN=      -1.0000    fix difference up-down

 DOS related values:
   EMIN   =  10.00;   EMAX   =-10.00  energy-range for DOS
   EFERMI =   0.00;   METHOD = MIDGAP      
   ISMEAR =     0;   SIGMA  =   0.05  broadening in eV -4-tet -1-fermi 0-gaus

 Electronic relaxation 2 (details)
   IALGO  =     38    algorithm
   LDIAG  =      T    sub-space diagonalisation (order eigenvalues)
   LSUBROT=      F    optimize rotation matrix (better conditioning)
   TURBO    =      0    0=normal 1=particle mesh
   IRESTART =      0    0=no restart 2=restart with 2 vectors
   NREBOOT  =      0    no. of reboots
   NMIN     =      0    reboot dimension
   EREF     =   0.00    reference energy to select bands
   IMIX   =      4    mixing-type and parameters
     AMIX     =   0.40;   BMIX     =  1.00
     AMIX_MAG =   1.60;   BMIX_MAG =  1.00
     AMIN     =   0.10
     WC   =   100.;   INIMIX=   1;  MIXPRE=   1;  MAXMIX= -45

 Intra band minimization:
   WEIMIN = 0.0000     energy-eigenvalue tresh-hold
   EBREAK =  0.42E-06  absolut break condition
   DEPER  =   0.30     relativ break condition  

   TIME   =   0.40     timestep for ELM

  volume/ion in A,a.u.               =    3442.80     23233.16
  Fermi-wavevector in a.u.,A,eV,Ry     =   0.156367  0.295490  0.332670  0.024451
  Thomas-Fermi vector in A             =   0.843192
 
 Write flags
   LWAVE        =      F    write WAVECAR
   LDOWNSAMPLE  =      F    k-point downsampling of WAVECAR
   LCHARG       =      F    write CHGCAR
   LVTOT        =      F    write LOCPOT, total local potential
   LVHAR        =      F    write LOCPOT, Hartree potential only
   LELF         =      F    write electronic localiz. function (ELF)
   LORBIT       =      0    0 simple, 1 ext, 2 COOP (PROOUT), +10 PAW based schemes


 Dipole corrections
   LMONO  =      F    monopole corrections only (constant potential shift)
   LDIPOL =      F    correct potential (dipole corrections)
   IDIPOL =      0    1-x, 2-y, 3-z, 4-all directions 
   EPSILON=  1.0000000 bulk dielectric constant

 Exchange correlation treatment:
   GGA     =    PE    GGA type
   LEXCH   =     8    internal setting for exchange type
   LIBXC   =     F    Libxc                    
   VOSKOWN =     0    Vosko Wilk Nusair interpolation
   LHFCALC =     F    Hartree Fock is set to
   LHFONE  =     F    Hartree Fock one center treatment
   AEXX    =    0.0000 exact exchange contribution

 Linear response parameters
   LEPSILON=     F    determine dielectric tensor
   LRPA    =     F    only Hartree local field effects (RPA)
   LNABLA  =     F    use nabla operator in PAW spheres
   LVEL    =     F    velocity operator in full k-point grid
   CSHIFT  =0.1000    complex shift for real part using Kramers Kronig
   OMEGAMAX=  -1.0    maximum frequency
   DEG_THRESHOLD= 0.2000000E-02 threshold for treating states as degnerate
   RTIME   =   -0.100 relaxation time in fs
  (WPLASMAI=    0.000 imaginary part of plasma frequency in eV, 0.658/RTIME)
   DFIELD  = 0.0000000 0.0000000 0.0000000 field for delta impulse in time
 
  Optional k-point grid parameters
   LKPOINTS_OPT  =     F    use optional k-point grid
   KPOINTS_OPT_MODE=     1    mode for optional k-point grid
 
 Orbital magnetization related:
   ORBITALMAG=     F  switch on orbital magnetization
   LCHIMAG   =     F  perturbation theory with respect to B field
   DQ        =  0.001000  dq finite difference perturbation B field
   LLRAUG    =     F  two centre corrections for induced B field
   LBONE     =     F  B-component reconstruction in AE one-centre
   LVGVCALC  =     T  calculate vGv susceptibility
   LVGVAPPL  =     F  apply vGv susceptibility instead of pGv for G=0

 Random number generation:
   RANDOM_GENERATOR = DEFAULT
   PCG_SEED         = not used


--------------------------------------------------------------------------------------------------------


 Static calculation
 charge density and potential will be updated during run
 spin polarized calculation
 Variant of blocked Davidson
 Davidson routine will perform the subspace rotation
 perform sub-space diagonalisation
    after iterative eigenvector-optimisation
 modified Broyden-mixing scheme, WC =      100.0
 initial mixing is a Kerker type mixing with AMIX =  0.4000 and BMIX =      1.0000
 Hartree-type preconditioning will be used
 using additional bands            4
 reciprocal scheme for non local part
 use partial core corrections
 calculate Harris-corrections to forces 
   (improved forces if not selfconsistent)
 use gradient corrections 
 use of overlap-Matrix (Vanderbilt PP)
 Gauss-broadening in eV      SIGMA  =   0.05


--------------------------------------------------------------------------------------------------------


  energy-cutoff  :      520.00
  volume of cell :     3442.80
      direct lattice vectors                 reciprocal lattice vectors
    15.000000000  0.000000000  0.000000000     0.066666667 -0.000000000  0.000000000
     0.000000000 15.100000000  0.000000000     0.000000000  0.066225166  0.000000000
     0.000000000  0.000000000 15.200000000    -0.000000000 -0.000000000  0.065789474

  length of vectors
    15.000000000 15.100000000 15.200000000     0.066666667  0.066225166  0.065789474


 
 k-points in units of 2pi/SCALE and weight: Automatic kpoint scheme                 
   0.00000000  0.00000000  0.00000000       1.000
 
 k-points in reciprocal lattice and weights: Automatic kpoint scheme                 
   0.00000000  0.00000000  0.00000000       1.000
 
 position of ions in fractional coordinates (direct lattice) 
   0.00000000  0.00000000  0.00000000
 
 position of ions in cartesian coordinates  (Angst):
   0.00000000  0.00000000  0.00000000
 


--------------------------------------------------------------------------------------------------------


 use parallel FFT for orbitals z direction half grid
 k-point   1 :   0.0000 0.0000 0.0000  plane waves:   46338

 maximum and minimum number of plane-waves per node :      1457     1434

 maximum number of plane-waves:     46338
 maximum index in each direction: 
   IXMAX=   27   IYMAX=   28   IZMAX=   28
   IXMIN=  -27   IYMIN=  -28   IZMIN=    0


 parallel 3D FFT for wavefunctions:
    minimum data exchange during FFTs selected (reduces bandwidth)
 parallel 3D FFT for charge:
    minimum data exchange during FFTs selected (reduces bandwidth)


 total amount of memory used by VASP MPI-rank0    58313. kBytes
=======================================================================

   base      :      30000. kBytes
   nonl-proj :        116. kBytes
   fftplans  :       8156. kBytes
   grid      :      19898. kBytes
   one-center:          3. kBytes
   wavefun   :        140. kBytes
 
     INWAV:  cpu time      0.0000: real time      0.0003
 Broyden mixing: mesh for mixing (old mesh)
   NGX = 55   NGY = 57   NGZ = 57
  (NGX  =224   NGY  =224   NGZ  =240)
  gives a total of 178695 points

 initial charge density was supplied:
 charge density of overlapping atoms calculated
 number of electron       3.0000000 magnetization       1.0000000
 keeping initial charge density in first step


--------------------------------------------------------------------------------------------------------


 Maximum index for augmentation-charges          799 (set IRDMAX)


--------------------------------------------------------------------------------------------------------


 First call to EWALD:  gamma=   0.117
 Maximum number of real-space cells 3x 3x 3
 Maximum number of reciprocal cells 3x 3x 3

    FEWALD:  cpu time      0.0011: real time      0.0011


--------------------------------------- Ionic step        1  -------------------------------------------




--------------------------------------- Iteration      1(   1)  ---------------------------------------


    POTLOK:  cpu time      0.4127: real time      0.4153
    SETDIJ:  cpu time      0.1937: real time      0.1946
     EDDAV:  cpu time      0.0270: real time      0.0274
       DOS:  cpu time      0.0004: real time      0.0004
    --------------------------------------------
      LOOP:  cpu time      0.6338: real time      0.6377

 eigenvalue-minimisations  :    24
 total energy-change (2. order) : 0.3386408E+01  (-0.2645581E+02)
 number of electron       3.0000000 magnetization       1.0000000
 augmentation part        3.0000000 magnetization       1.0000000

 Free energy of the ion-electron system (eV)
  ---------------------------------------------------
  alpha Z        PSCENC =        -0.00097560
  Ewald energy   TEWEN  =       -12.17540799
  -Hartree energ DENC   =       -27.24916067
  -exchange      EXHF   =         0.00000000
  -V(xc)+E(xc)   XCENC  =       -27.96751710
  PAW double counting   =        66.09387665      -34.14163118
  entropy T*S    EENTRO =        -0.00795123
  eigenvalues    EBANDS =       -14.70328185
  atomic energy  EATOM  =        53.53845706
  Solvation  Ediel_sol  =         0.00000000
  ---------------------------------------------------
  free energy    TOTEN  =         3.38640809 eV

  energy without entropy =        3.39435931  energy(sigma->0) =        3.39038370


--------------------------------------------------------------------------------------------------------




--------------------------------------- Iteration      1(   2)  ---------------------------------------


     EDDAV:  cpu time      0.0639: real time      0.0649
       DOS:  cpu time      0.0003: real time      0.0003
    --------------------------------------------
      LOOP:  cpu time      0.0642: real time      0.0652

 eigenvalue-minimisations  :    48
 total energy-change (2. order) :-0.2460662E+01  (-0.2442109E+01)
 number of electron       3.0000000 magnetization       1.0000000
 augmentation part        3.0000000 magnetization       1.0000000

 Free energy of the ion-electron system (eV)
  ---------------------------------------------------
  alpha Z        PSCENC =        -0.00097560
  Ewald energy   TEWEN  =       -12.17540799
  -Hartree energ DENC   =       -27.24916067
  -exchange      EXHF   =         0.00000000
  -V(xc)+E(xc)   XCENC  =       -27.96751710
  PAW double counting   =        66.09387665      -34.14163118
  entropy T*S    EENTRO =        -0.00425655
  eigenvalues    EBANDS =       -17.16763870
  atomic energy  EATOM  =        53.53845706
  Solvation  Ediel_sol  =         0.00000000
  ---------------------------------------------------
  free energy    TOTEN  =         0.92574591 eV

  energy without entropy =        0.93000246  energy(sigma->0) =        0.92787419


--------------------------------------------------------------------------------------------------------




--------------------------------------- Iteration      1(   3)  ---------------------------------------


     EDDAV:  cpu time      0.0450: real time      0.0454
       DOS:  cpu time      0.0003: real time      0.0003
    --------------------------------------------
      LOOP:  cpu time      0.0454: real time      0.0458

 eigenvalue-minimisations  :    30
 total energy-change (2. order) :-0.1077333E+01  (-0.1059547E+01)
 number of electron       3.0000000 magnetization       1.0000000
 augmentation part        3.0000000 magnetization       1.0000000

 Free energy of the ion-electron system (eV)
  ---------------------------------------------------
  alpha Z        PSCENC =        -0.00097560
  Ewald energy   TEWEN  =       -12.17540799
  -Hartree energ DENC   =       -27.24916067
  -exchange      EXHF   =         0.00000000
  -V(xc)+E(xc)   XCENC  =       -27.96751710
  PAW double counting   =        66.09387665      -34.14163118
  entropy T*S    EENTRO =        -0.03407451
  eigenvalues    EBANDS =       -18.21515408
  atomic energy  EATOM  =        53.53845706
  Solvation  Ediel_sol  =         0.00000000
  ---------------------------------------------------
  free energy    TOTEN  =        -0.15158742 eV

  energy without entropy =       -0.11751292  energy(sigma->0) =       -0.13455017


--------------------------------------------------------------------------------------------------------




--------------------------------------- Iteration      1(   4)  ---------------------------------------


     EDDAV:  cpu time      0.0238: real time      0.0240
       DOS:  cpu time      0.0003: real time      0.0003
    --------------------------------------------
      LOOP:  cpu time      0.0241: real time      0.0243

 eigenvalue-minimisations  :    24
 total energy-change (2. order) :-0.6204126E-01  (-0.5766534E-01)
 number of electron       3.0000000 magnetization       1.0000000
 augmentation part        3.0000000 magnetization       1.0000000

 Free energy of the ion-electron system (eV)
  ---------------------------------------------------
  alpha Z        PSCENC =        -0.00097560
  Ewald energy   TEWEN  =       -12.17540799
  -Hartree energ DENC   =       -27.24916067
  -exchange      EXHF   =         0.00000000
  -V(xc)+E(xc)   XCENC  =       -27.96751710
  PAW double counting   =        66.09387665      -34.14163118
  entropy T*S    EENTRO =        -0.03856458
  eigenvalues    EBANDS =       -18.27270527
  atomic energy  EATOM  =        53.53845706
  Solvation  Ediel_sol  =         0.00000000
  ---------------------------------------------------
  free energy    TOTEN  =        -0.21362869 eV

  energy without entropy =       -0.17506410  energy(sigma->0) =       -0.19434640


--------------------------------------------------------------------------------------------------------




--------------------------------------- Iteration      1(   5)  ---------------------------------------


     EDDAV:  cpu time      0.0392: real time      0.0395
       DOS:  cpu time      0.0004: real time      0.0004
    CHARGE:  cpu time      0.0264: real time      0.0266
    MIXING:  cpu time      0.0037: real time      0.0037
    --------------------------------------------
      LOOP:  cpu time      0.0697: real time      0.0702

 eigenvalue-minimisations  :    48
 total energy-change (2. order) :-0.1022891E-02  (-0.1021938E-02)
 number of electron       3.0000000 magnetization       1.0000000
 augmentation part       -0.0673566 magnetization       0.0031167

 Broyden mixing:
  rms(total) = 0.58964E-01    rms(broyden)= 0.58964E-01
  rms(prec ) = 0.59430E-01
  weight for this iteration     100.00

 Free energy of the ion-electron system (eV)
  ---------------------------------------------------
  alpha Z        PSCENC =        -0.00097560
  Ewald energy   TEWEN  =       -12.17540799
  -Hartree energ DENC   =       -27.24916067
  -exchange      EXHF   =         0.00000000
  -V(xc)+E(xc)   XCENC  =       -27.96751710
  PAW double counting   =        66.09387665      -34.14163118
  entropy T*S    EENTRO =        -0.03856558
  eigenvalues    EBANDS =       -18.27372716
  atomic energy  EATOM  =        53.53845706
  Solvation  Ediel_sol  =         0.00000000
  ---------------------------------------------------
  free energy    TOTEN  =        -0.21465158 eV

  energy without entropy =       -0.17608600  energy(sigma->0) =       -0.19536879


--------------------------------------------------------------------------------------------------------




--------------------------------------- Iteration      1(   6)  ---------------------------------------


    POTLOK:  cpu time      0.3164: real time      0.3189
    SETDIJ:  cpu time      0.1935: real time      0.1944
     EDDAV:  cpu time      0.0427: real time      0.0430
       DOS:  cpu time      0.0004: real time      0.0004
    CHARGE:  cpu time      0.0208: real time      0.0209
    MIXING:  cpu time      0.0042: real time      0.0043
    --------------------------------------------
      LOOP:  cpu time      0.5780: real time      0.5819

 eigenvalue-minimisations  :    48
 total energy-change (2. order) :-0.1267044E-01  (-0.4273760E-02)
 number of electron       3.0000000 magnetization       1.0000000
 augmentation part       -0.0671274 magnetization       0.0045138

 Broyden mixing:
  rms(total) = 0.17119E-01    rms(broyden)= 0.17118E-01
  rms(prec ) = 0.17522E-01
  weight for this iteration     100.00

 eigenvalues of (default mixing * dielectric matrix)
  average eigenvalue GAMMA=   0.8035
  0.8035

 Free energy of the ion-electron system (eV)
  ---------------------------------------------------
  alpha Z        PSCENC =        -0.00097560
  Ewald energy   TEWEN  =       -12.17540799
  -Hartree energ DENC   =       -27.31892547
  -exchange      EXHF   =         0.00000000
  -V(xc)+E(xc)   XCENC  =       -27.97422580
  PAW double counting   =        66.32717292      -34.37345612
  entropy T*S    EENTRO =        -0.03856556
  eigenvalues    EBANDS =       -18.21139545
  atomic energy  EATOM  =        53.53845706
  Solvation  Ediel_sol  =         0.00000000
  ---------------------------------------------------
  free energy    TOTEN  =        -0.22732202 eV

  energy without entropy =       -0.18875645  energy(sigma->0) =       -0.20803924


--------------------------------------------------------------------------------------------------------




--------------------------------------- Iteration      1(   7)  ---------------------------------------


    POTLOK:  cpu time      0.3181: real time      0.3202
    SETDIJ:  cpu time      0.1938: real time      0.1947
     EDDAV:  cpu time      0.0259: real time      0.0261
       DOS:  cpu time      0.0004: real time      0.0004
    CHARGE:  cpu time      0.0212: real time      0.0212
    MIXING:  cpu time      0.0040: real time      0.0040
    --------------------------------------------
      LOOP:  cpu time      0.5633: real time      0.5667

 eigenvalue-minimisations  :    24
 total energy-change (2. order) :-0.3496613E-02  (-0.2703437E-03)
 number of electron       3.0000000 magnetization       1.0000000
 augmentation part       -0.0671730 magnetization       0.0042172

 Broyden mixing:
  rms(total) = 0.52742E-02    rms(broyden)= 0.52742E-02
  rms(prec ) = 0.58628E-02
  weight for this iteration     100.00

 eigenvalues of (default mixing * dielectric matrix)
  average eigenvalue GAMMA=   0.8308
  0.9837  0.6780

 Free energy of the ion-electron system (eV)
  ---------------------------------------------------
  alpha Z        PSCENC =        -0.00097560
  Ewald energy   TEWEN  =       -12.17540799
  -Hartree energ DENC   =       -27.34581035
  -exchange      EXHF   =         0.00000000
  -V(xc)+E(xc)   XCENC  =       -27.97636379
  PAW double counting   =        66.75211129      -34.79951931
  entropy T*S    EENTRO =        -0.03856491
  eigenvalues    EBANDS =       -18.18474503
  atomic energy  EATOM  =        53.53845706
  Solvation  Ediel_sol  =         0.00000000
  ---------------------------------------------------
  free energy    TOTEN  =        -0.23081863 eV

  energy without entropy =       -0.19225372  energy(sigma->0) =       -0.21153618


--------------------------------------------------------------------------------------------------------




--------------------------------------- Iteration      1(   8)  ---------------------------------------


    POTLOK:  cpu time      0.3187: real time      0.3211
    SETDIJ:  cpu time      0.1936: real time      0.1945
     EDDAV:  cpu time      0.0258: real time      0.0260
       DOS:  cpu time      0.0004: real time      0.0004
    CHARGE:  cpu time      0.0207: real time      0.0209
    MIXING:  cpu time      0.0040: real time      0.0040
    --------------------------------------------
      LOOP:  cpu time      0.5633: real time      0.5670

 eigenvalue-minimisations  :    24
 total energy-change (2. order) :-0.1540716E-02  (-0.1539841E-03)
 number of electron       3.0000000 magnetization       1.0000000
 augmentation part       -0.0671694 magnetization       0.0041850

 Broyden mixing:
  rms(total) = 0.37652E-02    rms(broyden)= 0.37652E-02
  rms(prec ) = 0.46289E-02
  weight for this iteration     100.00

 eigenvalues of (default mixing * dielectric matrix)
  average eigenvalue GAMMA=   0.8044
  1.0894  0.7528  0.5710

 Free energy of the ion-electron system (eV)
  ---------------------------------------------------
  alpha Z        PSCENC =        -0.00097560
  Ewald energy   TEWEN  =       -12.17540799
  -Hartree energ DENC   =       -27.36628843
  -exchange      EXHF   =         0.00000000
  -V(xc)+E(xc)   XCENC  =       -27.97635036
  PAW double counting   =        66.80248361      -34.84948864
  entropy T*S    EENTRO =        -0.03854984
  eigenvalues    EBANDS =       -18.16623915
  atomic energy  EATOM  =        53.53845706
  Solvation  Ediel_sol  =         0.00000000
  ---------------------------------------------------
  free energy    TOTEN  =        -0.23235935 eV

  energy without entropy =       -0.19380950  energy(sigma->0) =       -0.21308442


--------------------------------------------------------------------------------------------------------




--------------------------------------- Iteration      1(   9)  ---------------------------------------


    POTLOK:  cpu time      0.3179: real time      0.3201
    SETDIJ:  cpu time      0.1935: real time      0.1944
     EDDAV:  cpu time      0.0257: real time      0.0259
       DOS:  cpu time      0.0003: real time      0.0003
    CHARGE:  cpu time      0.0211: real time      0.0212
    MIXING:  cpu time      0.0045: real time      0.0045
    --------------------------------------------
      LOOP:  cpu time      0.5631: real time      0.5665

 eigenvalue-minimisations  :    24
 total energy-change (2. order) :-0.1003077E-02  (-0.2396071E-04)
 number of electron       3.0000000 magnetization       1.0000000
 augmentation part       -0.0671570 magnetization       0.0041648

 Broyden mixing:
  rms(total) = 0.11184E-01    rms(broyden)= 0.11184E-01
  rms(prec ) = 0.13482E-01
  weight for this iteration     100.00

 eigenvalues of (default mixing * dielectric matrix)
  average eigenvalue GAMMA=   0.7562
  1.3140  0.8476  0.6305  0.2328

 Free energy of the ion-electron system (eV)
  ---------------------------------------------------
  alpha Z        PSCENC =        -0.00097560
  Ewald energy   TEWEN  =       -12.17540799
  -Hartree energ DENC   =       -27.37548997
  -exchange      EXHF   =         0.00000000
  -V(xc)+E(xc)   XCENC  =       -27.97619395
  PAW double counting   =        66.79685014      -34.84379322
  entropy T*S    EENTRO =        -0.03837042
  eigenvalues    EBANDS =       -18.15843848
  atomic energy  EATOM  =        53.53845706
  Solvation  Ediel_sol  =         0.00000000
  ---------------------------------------------------
  free energy    TOTEN  =        -0.23336242 eV

  energy without entropy =       -0.19499200  energy(sigma->0) =       -0.21417721


--------------------------------------------------------------------------------------------------------




--------------------------------------- Iteration      1(  10)  ---------------------------------------


    POTLOK:  cpu time      0.3247: real time      0.3272
    SETDIJ:  cpu time      0.1935: real time      0.1944
     EDDAV:  cpu time      0.0343: real time      0.0346
       DOS:  cpu time      0.0004: real time      0.0004
    CHARGE:  cpu time      0.0222: real time      0.0224
    MIXING:  cpu time      0.0044: real time      0.0044
    --------------------------------------------
      LOOP:  cpu time      0.5795: real time      0.5833

 eigenvalue-minimisations  :    36
 total energy-change (2. order) : 0.9116903E-03  (-0.2268181E-04)
 number of electron       3.0000000 magnetization       1.0000000
 augmentation part       -0.0671524 magnetization       0.0041484

 Broyden mixing:
  rms(total) = 0.13760E-02    rms(broyden)= 0.13760E-02
  rms(prec ) = 0.17389E-02
  weight for this iteration     100.00

 eigenvalues of (default mixing * dielectric matrix)
  average eigenvalue GAMMA=   0.7961
  1.6050  0.9021  0.6525  0.5819  0.2388

 Free energy of the ion-electron system (eV)
  ---------------------------------------------------
  alpha Z        PSCENC =        -0.00097560
  Ewald energy   TEWEN  =       -12.17540799
  -Hartree energ DENC   =       -27.38322514
  -exchange      EXHF   =         0.00000000
  -V(xc)+E(xc)   XCENC  =       -27.97483043
  PAW double counting   =        66.80204192      -34.84896938
  entropy T*S    EENTRO =        -0.03856526
  eigenvalues    EBANDS =       -18.15097591
  atomic energy  EATOM  =        53.53845706
  Solvation  Ediel_sol  =         0.00000000
  ---------------------------------------------------
  free energy    TOTEN  =        -0.23245073 eV

  energy without entropy =       -0.19388547  energy(sigma->0) =       -0.21316810


--------------------------------------------------------------------------------------------------------




--------------------------------------- Iteration      1(  11)  ---------------------------------------


    POTLOK:  cpu time      0.3369: real time      0.3396
    SETDIJ:  cpu time      0.1934: real time      0.1943
     EDDAV:  cpu time      0.0254: real time      0.0256
       DOS:  cpu time      0.0004: real time      0.0004
    CHARGE:  cpu time      0.0212: real time      0.0213
    MIXING:  cpu time      0.0049: real time      0.0049
    --------------------------------------------
      LOOP:  cpu time      0.5821: real time      0.5861

 eigenvalue-minimisations  :    24
 total energy-change (2. order) :-0.1116453E-02  (-0.8541079E-05)
 number of electron       3.0000000 magnetization       1.0000000
 augmentation part       -0.0671314 magnetization       0.0041209

 Broyden mixing:
  rms(total) = 0.14025E-02    rms(broyden)= 0.14025E-02
  rms(prec ) = 0.17682E-02
  weight for this iteration     100.00

 eigenvalues of (default mixing * dielectric matrix)
  average eigenvalue GAMMA=   0.7449
  1.6172  0.2389  0.9163  0.6562  0.5204  0.5204

 Free energy of the ion-electron system (eV)
  ---------------------------------------------------
  alpha Z        PSCENC =        -0.00097560
  Ewald energy   TEWEN  =       -12.17540799
  -Hartree energ DENC   =       -27.39400690
  -exchange      EXHF   =         0.00000000
  -V(xc)+E(xc)   XCENC  =       -27.97478664
  PAW double counting   =        66.73830255      -34.78497640
  entropy T*S    EENTRO =        -0.03856328
  eigenvalues    EBANDS =       -18.14160997
  atomic energy  EATOM  =        53.53845706
  Solvation  Ediel_sol  =         0.00000000
  ---------------------------------------------------
  free energy    TOTEN  =        -0.23356719 eV

  energy without entropy =       -0.19500390  energy(sigma->0) =       -0.21428554


--------------------------------------------------------------------------------------------------------




--------------------------------------- Iteration      1(  12)  ---------------------------------------


    POTLOK:  cpu time      0.3197: real time      0.3217
    SETDIJ:  cpu time      0.1936: real time      0.1945
     EDDAV:  cpu time      0.0377: real time      0.0380
       DOS:  cpu time      0.0004: real time      0.0004
    CHARGE:  cpu time      0.0213: real time      0.0214
    MIXING:  cpu time      0.0048: real time      0.0048
    --------------------------------------------
      LOOP:  cpu time      0.5775: real time      0.5809

 eigenvalue-minimisations  :    42
 total energy-change (2. order) :-0.4261323E-03  (-0.7340560E-06)
 number of electron       3.0000000 magnetization       1.0000000
 augmentation part       -0.0671273 magnetization       0.0041102

 Broyden mixing:
  rms(total) = 0.28284E-02    rms(broyden)= 0.28283E-02
  rms(prec ) = 0.34445E-02
  weight for this iteration     100.00

 eigenvalues of (default mixing * dielectric matrix)
  average eigenvalue GAMMA=   0.7866
  1.8454  1.1615  0.8406  0.6326  0.5582  0.2381  0.2301

 Free energy of the ion-electron system (eV)
  ---------------------------------------------------
  alpha Z        PSCENC =        -0.00097560
  Ewald energy   TEWEN  =       -12.17540799
  -Hartree energ DENC   =       -27.39551170
  -exchange      EXHF   =         0.00000000
  -V(xc)+E(xc)   XCENC  =       -27.97500374
  PAW double counting   =        66.72293368      -34.76954884
  entropy T*S    EENTRO =        -0.03855328
  eigenvalues    EBANDS =       -18.14038292
  atomic energy  EATOM  =        53.53845706
  Solvation  Ediel_sol  =         0.00000000
  ---------------------------------------------------
  free energy    TOTEN  =        -0.23399332 eV

  energy without entropy =       -0.19544004  energy(sigma->0) =       -0.21471668


--------------------------------------------------------------------------------------------------------




--------------------------------------- Iteration      1(  13)  ---------------------------------------


    POTLOK:  cpu time      0.3416: real time      0.3418
    SETDIJ:  cpu time      0.1935: real time      0.1944
     EDDAV:  cpu time      0.0327: real time      0.0330
       DOS:  cpu time      0.0010: real time      0.0010
    CHARGE:  cpu time      0.0247: real time      0.0248
    MIXING:  cpu time      0.0077: real time      0.0077
    --------------------------------------------
      LOOP:  cpu time      0.6012: real time      0.6028

 eigenvalue-minimisations  :    24
 total energy-change (2. order) :-0.6123168E-03  (-0.3924126E-05)
 number of electron       3.0000000 magnetization       1.0000000
 augmentation part       -0.0671181 magnetization       0.0040978

 Broyden mixing:
  rms(total) = 0.56953E-03    rms(broyden)= 0.56952E-03
  rms(prec ) = 0.82905E-03
  weight for this iteration     100.00

 eigenvalues of (default mixing * dielectric matrix)
  average eigenvalue GAMMA=   0.8950
  2.3734  1.4681  0.8700  0.8169  0.6271  0.5262  0.2367  0.2415

 Free energy of the ion-electron system (eV)
  ---------------------------------------------------
  alpha Z        PSCENC =        -0.00097560
  Ewald energy   TEWEN  =       -12.17540799
  -Hartree energ DENC   =       -27.39996392
  -exchange      EXHF   =         0.00000000
  -V(xc)+E(xc)   XCENC  =       -27.97508544
  PAW double counting   =        66.68024323      -34.72670815
  entropy T*S    EENTRO =        -0.03856536
  eigenvalues    EBANDS =       -18.13659946
  atomic energy  EATOM  =        53.53845706
  Solvation  Ediel_sol  =         0.00000000
  ---------------------------------------------------
  free energy    TOTEN  =        -0.23460564 eV

  energy without entropy =       -0.19604027  energy(sigma->0) =       -0.21532295


--------------------------------------------------------------------------------------------------------




--------------------------------------- Iteration      1(  14)  ---------------------------------------


    POTLOK:  cpu time      0.3328: real time      0.3349
    SETDIJ:  cpu time      0.1944: real time      0.1953
     EDDAV:  cpu time      0.0293: real time      0.0295
       DOS:  cpu time      0.0004: real time      0.0004
    CHARGE:  cpu time      0.0209: real time      0.0210
    MIXING:  cpu time      0.0052: real time      0.0052
    --------------------------------------------
      LOOP:  cpu time      0.5829: real time      0.5865

 eigenvalue-minimisations  :    30
 total energy-change (2. order) :-0.7595686E-03  (-0.2211951E-05)
 number of electron       3.0000000 magnetization       1.0000000
 augmentation part       -0.0671129 magnetization       0.0040888

 Broyden mixing:
  rms(total) = 0.26477E-03    rms(broyden)= 0.26477E-03
  rms(prec ) = 0.47934E-03
  weight for this iteration     100.00

 eigenvalues of (default mixing * dielectric matrix)
  average eigenvalue GAMMA=   0.9819
  2.8068  1.7365  1.0954  0.8416  0.7195  0.6270  0.5328  0.2362  0.2416

 Free energy of the ion-electron system (eV)
  ---------------------------------------------------
  alpha Z        PSCENC =        -0.00097560
  Ewald energy   TEWEN  =       -12.17540799
  -Hartree energ DENC   =       -27.40531633
  -exchange      EXHF   =         0.00000000
  -V(xc)+E(xc)   XCENC  =       -27.97521924
  PAW double counting   =        66.64594740      -34.69222643
  entropy T*S    EENTRO =        -0.03856554
  eigenvalues    EBANDS =       -18.13205852
  atomic energy  EATOM  =        53.53845706
  Solvation  Ediel_sol  =         0.00000000
  ---------------------------------------------------
  free energy    TOTEN  =        -0.23536520 eV

  energy without entropy =       -0.19679966  energy(sigma->0) =       -0.21608243


--------------------------------------------------------------------------------------------------------




--------------------------------------- Iteration      1(  15)  ---------------------------------------


    POTLOK:  cpu time      0.3147: real time      0.3171
    SETDIJ:  cpu time      0.1934: real time      0.1943
     EDDAV:  cpu time      0.0372: real time      0.0374
       DOS:  cpu time      0.0004: real time      0.0004
    CHARGE:  cpu time      0.0209: real time      0.0211
    MIXING:  cpu time      0.0054: real time      0.0055
    --------------------------------------------
      LOOP:  cpu time      0.5720: real time      0.5757

 eigenvalue-minimisations  :    42
 total energy-change (2. order) :-0.4006263E-03  (-0.1323315E-05)
 number of electron       3.0000000 magnetization       1.0000000
 augmentation part       -0.0671109 magnetization       0.0040849

 Broyden mixing:
  rms(total) = 0.26970E-03    rms(broyden)= 0.26970E-03
  rms(prec ) = 0.41187E-03
  weight for this iteration     100.00

 eigenvalues of (default mixing * dielectric matrix)
  average eigenvalue GAMMA=   1.0806
  3.4292  1.9777  1.3346  0.8998  0.8398  0.6864  0.6267  0.5336  0.2416  0.2363

 Free energy of the ion-electron system (eV)
  ---------------------------------------------------
  alpha Z        PSCENC =        -0.00097560
  Ewald energy   TEWEN  =       -12.17540799
  -Hartree energ DENC   =       -27.40943296
  -exchange      EXHF   =         0.00000000
  -V(xc)+E(xc)   XCENC  =       -27.97522248
  PAW double counting   =        66.63171280      -34.67789724
  entropy T*S    EENTRO =        -0.03856549
  eigenvalues    EBANDS =       -18.12843393
  atomic energy  EATOM  =        53.53845706
  Solvation  Ediel_sol  =         0.00000000
  ---------------------------------------------------
  free energy    TOTEN  =        -0.23576583 eV

  energy without entropy =       -0.19720034  energy(sigma->0) =       -0.21648309


--------------------------------------------------------------------------------------------------------




--------------------------------------- Iteration      1(  16)  ---------------------------------------


    POTLOK:  cpu time      0.3236: real time      0.3260
    SETDIJ:  cpu time      0.1933: real time      0.1942
     EDDAV:  cpu time      0.0332: real time      0.0334
       DOS:  cpu time      0.0004: real time      0.0004
    CHARGE:  cpu time      0.0215: real time      0.0217
    MIXING:  cpu time      0.0056: real time      0.0056
    --------------------------------------------
      LOOP:  cpu time      0.5775: real time      0.5813

 eigenvalue-minimisations  :    36
 total energy-change (2. order) :-0.1058467E-03  (-0.5198457E-06)
 number of electron       3.0000000 magnetization       1.0000000
 augmentation part       -0.0671102 magnetization       0.0040846

 Broyden mixing:
  rms(total) = 0.35060E-03    rms(broyden)= 0.35060E-03
  rms(prec ) = 0.45720E-03
  weight for this iteration     100.00

 eigenvalues of (default mixing * dielectric matrix)
  average eigenvalue GAMMA=   1.0006
  3.4670  1.9846  1.3456  0.9064  0.8398  0.6874  0.6267  0.5336  0.2416  0.2363
  0.1371

 Free energy of the ion-electron system (eV)
  ---------------------------------------------------
  alpha Z        PSCENC =        -0.00097560
  Ewald energy   TEWEN  =       -12.17540799
  -Hartree energ DENC   =       -27.41275794
  -exchange      EXHF   =         0.00000000
  -V(xc)+E(xc)   XCENC  =       -27.97507700
  PAW double counting   =        66.62886692      -34.67504776
  entropy T*S    EENTRO =        -0.03856539
  eigenvalues    EBANDS =       -18.12536397
  atomic energy  EATOM  =        53.53845706
  Solvation  Ediel_sol  =         0.00000000
  ---------------------------------------------------
  free energy    TOTEN  =        -0.23587168 eV

  energy without entropy =       -0.19730628  energy(sigma->0) =       -0.21658898


--------------------------------------------------------------------------------------------------------




--------------------------------------- Iteration      1(  17)  ---------------------------------------


    POTLOK:  cpu time      0.3261: real time      0.3283
    SETDIJ:  cpu time      0.1933: real time      0.1942
     EDDAV:  cpu time      0.0378: real time      0.0381
       DOS:  cpu time      0.0004: real time      0.0004
    --------------------------------------------
      LOOP:  cpu time      0.5576: real time      0.5610

 eigenvalue-minimisations  :    42
 total energy-change (2. order) : 0.3506444E-05  (-0.3479486E-08)
 number of electron       3.0000000 magnetization       1.0000000
 augmentation part       -0.0671102 magnetization       0.0040846

 Free energy of the ion-electron system (eV)
  ---------------------------------------------------
  alpha Z        PSCENC =        -0.00097560
  Ewald energy   TEWEN  =       -12.17540799
  -Hartree energ DENC   =       -27.41273555
  -exchange      EXHF   =         0.00000000
  -V(xc)+E(xc)   XCENC  =       -27.97507638
  PAW double counting   =        66.62874207      -34.67492139
  entropy T*S    EENTRO =        -0.03856545
  eigenvalues    EBANDS =       -18.12538493
  atomic energy  EATOM  =        53.53845706
  Solvation  Ediel_sol  =         0.00000000
  ---------------------------------------------------
  free energy    TOTEN  =        -0.23586817 eV

  energy without entropy =       -0.19730272  energy(sigma->0) =       -0.21658544


--------------------------------------------------------------------------------------------------------




 average (electrostatic) potential at core
  the test charge radii are     1.0406
  (the norm of the test charge is              1.0000)
       1 -85.1862
 
 
 
 E-fermi :  -2.9543     XC(G=0):  -0.3945     alpha+bet : -0.0713

 Fermi energy:        -2.9543150868

 spin component 1

 k-point     1 :       0.0000    0.0000    0.0000
  band No.  band energies     occupation 
      1      -7.9747      1.00000
      2      -2.9392      0.33436
      3      -2.9391      0.33353
      4      -2.9390      0.33211
      5      -0.4693      0.00000
      6       0.3053      0.00000
 Fermi energy:        -2.9543150868

 spin component 2

 k-point     1 :       0.0000    0.0000    0.0000
  band No.  band energies     occupation 
      1      -7.2116      1.00000
      2      -2.1532      0.00000
      3      -2.1529      0.00000
      4      -2.1528      0.00000
      5      -0.1205      0.00000
      6       0.5636      0.00000


--------------------------------------------------------------------------------------------------------


 soft charge-density along one line, spin component           1
         0         1         2         3         4         5         6         7         8         9
 total charge-density along one line
 
 soft charge-density along one line, spin component           2
         0         1         2         3         4         5         6         7         8         9
 total charge-density along one line
 
 pseudopotential strength for first ion, spin component:           1
  8.875  15.146   0.000  -0.000   0.000   0.000  -0.000   0.000
 15.146  25.849   0.000  -0.000   0.000   0.000  -0.000   0.000
  0.000   0.000   1.970   0.000   0.000   5.768   0.000   0.000
 -0.000  -0.000   0.000   1.970  -0.000   0.000   5.768  -0.000
  0.000   0.000   0.000  -0.000   1.970   0.000  -0.000   5.768
  0.000   0.000   5.768   0.000   0.000  16.752   0.000   0.000
 -0.000  -0.000   0.000   5.768  -0.000   0.000  16.752  -0.000
  0.000   0.000   0.000  -0.000   5.768   0.000  -0.000  16.752
 pseudopotential strength for first ion, spin component:           2
  8.857  15.115   0.000   0.000   0.000   0.000   0.000   0.000
 15.115  25.795   0.000   0.000   0.000   0.000   0.000   0.000
  0.000   0.000   1.966  -0.000  -0.000   5.753  -0.000  -0.000
  0.000   0.000  -0.000   1.966   0.000  -0.000   5.753   0.000
  0.000   0.000  -0.000   0.000   1.966  -0.000   0.000   5.753
  0.000   0.000   5.753  -0.000  -0.000  16.703  -0.000  -0.000
  0.000   0.000  -0.000   5.753   0.000  -0.000  16.703   0.000
  0.000   0.000  -0.000   0.000   5.753  -0.000   0.000  16.703
 total augmentation occupancy for first ion, spin component:           1
  1.978  -0.009  -0.000  -0.000  -0.000  -0.000   0.000  -0.000
 -0.009   0.020   0.000   0.000   0.000  -0.000   0.000  -0.000
 -0.000   0.000   0.351   0.001   0.001  -0.003  -0.000  -0.000
 -0.000   0.000   0.001   0.352  -0.000  -0.000  -0.003   0.000
 -0.000   0.000   0.001  -0.000   0.352  -0.000   0.000  -0.003
 -0.000  -0.000  -0.003  -0.000  -0.000   0.000   0.000   0.000
  0.000   0.000  -0.000  -0.003   0.000   0.000   0.000  -0.000
 -0.000  -0.000  -0.000   0.000  -0.003   0.000  -0.000   0.000
 total augmentation occupancy for first ion, spin component:           2
  0.614  -0.193  -0.000  -0.000  -0.000  -0.000  -0.000   0.000
 -0.193  -0.005   0.000   0.000   0.000   0.000  -0.000   0.000
 -0.000   0.000   0.351   0.001   0.001  -0.003  -0.000  -0.000
 -0.000   0.000   0.001   0.352  -0.000  -0.000  -0.003   0.000
 -0.000   0.000   0.001  -0.000   0.352  -0.000   0.000  -0.003
 -0.000   0.000  -0.003  -0.000  -0.000   0.000   0.000   0.000
 -0.000  -0.000  -0.000  -0.003   0.000   0.000   0.000  -0.000
  0.000   0.000  -0.000   0.000  -0.003   0.000  -0.000   0.000


------------------------ aborting loop because EDIFF is reached ----------------------------------------


    CHARGE:  cpu time      0.0219: real time      0.0221
    FORLOC:  cpu time      0.0019: real time      0.0019
    FORNL :  cpu time      0.0044: real time      0.0044
    STRESS:  cpu time      0.0164: real time      0.0165
    FORCOR:  cpu time      0.3211: real time      0.3233
    FORHAR:  cpu time      0.0377: real time      0.0378
    MIXING:  cpu time      0.0078: real time      0.0079
    OFIELD:  cpu time      0.0000: real time      0.0000

  FORCE on cell =-STRESS in cart. coord.  units (eV):
  Direction    XX          YY          ZZ          XY          YZ          ZX
  --------------------------------------------------------------------------------------
  Alpha Z    -0.00098    -0.00098    -0.00098
  Ewald      -3.97656    -4.05854    -4.14031     0.00000     0.00000     0.00000
  Hartree     9.21837     9.13871     9.06236     0.00230     0.00216    -0.00012
  E(xc)      -7.13786    -7.13769    -7.13782    -0.00025    -0.00024     0.00001
  Local     -28.67593   -28.50885   -28.35388    -0.00899    -0.00847     0.00048
  n-local    21.35931    21.35723    21.35845     0.00260     0.00246    -0.00014
  augment    -1.78755    -1.78724    -1.78742    -0.00036    -0.00034     0.00002
  Kinetic    11.00257    10.99885    11.00096     0.00446     0.00420    -0.00024
  Fock        0.00000     0.00000     0.00000     0.00000     0.00000     0.00000
  -------------------------------------------------------------------------------------
  Total       0.00138     0.00149     0.00136    -0.00024    -0.00024     0.00001
  in kB       0.00064     0.00069     0.00064    -0.00011    -0.00011     0.00000
  external pressure =        0.00 kB  Pullay stress =        0.00 kB


 VOLUME and BASIS-vectors are now :
 -----------------------------------------------------------------------------
  energy-cutoff  :      520.00
  volume of cell :     3442.80
      direct lattice vectors                 reciprocal lattice vectors
    15.000000000  0.000000000  0.000000000     0.066666667 -0.000000000  0.000000000
     0.000000000 15.100000000  0.000000000     0.000000000  0.066225166  0.000000000
     0.000000000  0.000000000 15.200000000    -0.000000000 -0.000000000  0.065789474

  length of vectors
    15.000000000 15.100000000 15.200000000     0.066666667  0.066225166  0.065789474


 FORCES acting on ions
    electron-ion (+dipol)            ewald-force                    non-local-force                 convergence-correction
 -----------------------------------------------------------------------------------------------
   0.665E-05 0.819E-06 -.218E-05   -.782E-17 0.109E-17 0.336E-17   -.518E-05 -.109E-05 0.182E-05   -.160E-05 0.419E-06 0.422E-06
 -----------------------------------------------------------------------------------------------
   0.665E-05 0.819E-06 -.218E-05   -.782E-17 0.109E-17 0.336E-17   -.518E-05 -.109E-05 0.182E-05   -.160E-05 0.419E-06 0.422E-06
 
 
 POSITION                                       TOTAL-FORCE (eV/Angst)
 -----------------------------------------------------------------------------------
      0.00000      0.00000      0.00000        -0.000000      0.000000      0.000000
 -----------------------------------------------------------------------------------
    total drift:                               -0.000000      0.000000      0.000000


--------------------------------------------------------------------------------------------------------



  FREE ENERGIE OF THE ION-ELECTRON SYSTEM (eV)
  ---------------------------------------------------
  free  energy   TOTEN  =        -0.23586817 eV

  energy  without entropy=       -0.19730272  energy(sigma->0) =       -0.21658544
 


--------------------------------------------------------------------------------------------------------


    POTLOK:  cpu time      0.5213: real time      0.5243


--------------------------------------------------------------------------------------------------------


     LOOP+:  cpu time      8.8632: real time      8.9195
    4ORBIT:  cpu time      0.0000: real time      0.0000

 total amount of memory used by VASP MPI-rank0    58313. kBytes
=======================================================================

   base      :      30000. kBytes
   nonl-proj :        116. kBytes
   fftplans  :       8156. kBytes
   grid      :      19898. kBytes
   one-center:          3. kBytes
   wavefun   :        140. kBytes
 
  
  
 General timing and accounting informations for this job:
 ========================================================
  
                  Total CPU time used (sec):       10.375
                            User time (sec):        9.053
                          System time (sec):        1.322
                         Elapsed time (sec):       11.011
  
                   Maximum memory used (kb):      444064.
                   Average memory used (kb):          N/A
  
                          Minor page faults:        70793
                          Major page faults:           19
                 Voluntary context switches:         1238
