 vasp.6.4.2 20Jul23 (build Aug 07 2024 12:45:50) gamma-only                     
  
 executed on             LinuxIFC date 2026.09.30  12:27:06
 running   64 mpi-ranks, on    1 nodes
 distrk:  each k-point on   64 cores,    1 groups
 distr:  one band on NCORE=  32 cores,    2 groups


--------------------------------------------------------------------------------------------------------


 INCAR:
   ALGO = Normal
   EDIFF = 1e-05
   EFERMI = Midgap
   ENCUT = 520.0
   GGA = Pe
   GGA_COMPAT = False
   IBRION = -1
   ISMEAR = 0
   ISPIN = 1
   ISYM = 0
   LAECHG = False
   LASPH = True
   LCHARG = False
   LMAXMIX = 6
   LMIXTAU = True
   LREAL = False
   LWAVE = False
   NCORE = 32
   NELM = 400
   NSW = 0
   PREC = Accurate
   SIGMA = 0.05
   SYSTEM = F_atom_ispin1

 POTCAR:    PAW_PBE F 08Apr2002                   
 -----------------------------------------------------------------------------
|                                                                             |
|           W    W    AA    RRRRR   N    N  II  N    N   GGGG   !!!           |
|           W    W   A  A   R    R  NN   N  II  NN   N  G    G  !!!           |
|           W    W  A    A  R    R  N N  N  II  N N  N  G       !!!           |
|           W WW W  AAAAAA  RRRRR   N  N N  II  N  N N  G  GGG   !            |
|           WW  WW  A    A  R   R   N   NN  II  N   NN  G    G                |
|           W    W  A    A  R    R  N    N  II  N    N   GGGG   !!!           |
|                                                                             |
|     For optimal performance we recommend to set                             |
|       NCORE = 2 up to number-of-cores-per-socket                            |
|     NCORE specifies how many cores store one orbital (NPAR=cpu/NCORE).      |
|     This setting can greatly improve the performance of VASP for DFT.       |
|     The default, NCORE=1 might be grossly inefficient on modern             |
|     multi-core architectures or massively parallel machines. Do your        |
|     own testing! More info at https://www.vasp.at/wiki/index.php/NCORE      |
|     Unfortunately you need to use the default for GW and RPA                |
|     calculations (for HF NCORE is supported but not extensively tested      |
|     yet).                                                                   |
|                                                                             |
 -----------------------------------------------------------------------------

 POTCAR:    PAW_PBE F 08Apr2002                   
   SHA256 =  53c630871ac675939349fc2b976745ee17808dedc90b5bdde026bc81f0faf456 F/POTCAR              
   COPYR  = (c) Copyright 08Apr2002 Georg Kresse                                                    
   COPYR  = This file is part of the software VASP. Any use, copying, and all other rights are regul
   COPYR  = If you do not have a valid VASP license, you may not use, copy or distribute this file. 
   VRHFIN =F: s2p5                                                                                  
   LEXCH  = PE                                                                                      
   EATOM  =   659.6475 eV,   48.4827 Ry                                                             
                                                                                                    
   TITEL  = PAW_PBE F 08Apr2002                                                                     
   LULTRA =        F    use ultrasoft PP ?                                                          
   IUNSCR =        1    unscreen: 0-lin 1-nonlin 2-no                                               
   RPACOR =    1.200    partial core radius                                                         
   POMASS =   18.998; ZVAL   =    7.000    mass and valenz                                          
   RCORE  =    1.520    outmost cutoff radius                                                       
   RWIGS  =    1.500; RWIGS  =    0.794    wigner-seitz radius (au A)                               
   ENMAX  =  400.000; ENMIN  =  300.000 eV                                                          
   ICORE  =        2    local potential                                                             
   LCOR   =        T    correct aug charges                                                         
   LPAW   =        T    paw PP                                                                      
   EAUG   =  613.614                                                                                
   RMAX   =    1.555    core radius for proj-oper                                                   
   RAUG   =    1.300    factor for augmentation sphere                                              
   RDEP   =    1.539    radius for radial grids                                                     
   RDEPT  =    1.299    core radius for aug-charge                                                  
                                                                                                    
   Atomic configuration                                                                             
    4 entries                                                                                       
     n  l   j            E        occ.                                                              
     1  0  0.50      -663.3661   2.0000                                                             
     2  0  0.50       -29.8995   2.0000                                                             
     2  1  0.50       -11.1114   5.0000                                                             
     3  2  1.50       -10.8847   0.0000                                                             
   Description                                                                                      
     l       E           TYP  RCUT    TYP  RCUT                                                     
     0    -29.8995018     23  1.200                                                                 
     0     -9.5240782     23  1.200                                                                 
     1    -11.1113914     23  1.520                                                                 
     1      1.3605826     23  1.520                                                                 
     2    -10.8846608      7  1.500                                                                 
  local pseudopotential read in
  partial core-charges read in
  partial kinetic energy density read in
  atomic valenz-charges read in
  non local Contribution for L=           0  read in
    real space projection operators read in
  non local Contribution for L=           0  read in
    real space projection operators read in
  non local Contribution for L=           1  read in
    real space projection operators read in
  non local Contribution for L=           1  read in
    real space projection operators read in
    PAW grid and wavefunctions read in
 
   number of l-projection  operators is LMAX  =           4
   number of lm-projection operators is LMMAX =           8
 
  PAW_PBE F 08Apr2002                   :
 energy of atom  1       EATOM= -659.6475
 kinetic energy error for atom=    0.0323 (will be added to EATOM!!)
 
 
 POSCAR: F1
  positions in direct lattice
  No initial velocities read in
 exchange correlation table for  LEXCH =        8
   RHO(1)=    0.500       N(1)  =     2000
   RHO(2)=  100.500       N(2)  =     4000
 


--------------------------------------------------------------------------------------------------------


 ion  position               nearest neighbor table
   1  0.000  0.000  0.000-
 

IMPORTANT INFORMATION: All symmetrisations will be switched off!
NOSYMM: (Re-)initialisation of all symmetry stuff for point group C_1.


----------------------------------------------------------------------------------------

                                     Primitive cell                                     

  volume of cell :    5929.5600

  direct lattice vectors                    reciprocal lattice vectors
    18.000000000  0.000000000  0.000000000     0.055555556 -0.000000000  0.000000000
     0.000000000 18.100000000  0.000000000     0.000000000  0.055248619  0.000000000
     0.000000000  0.000000000 18.200000000    -0.000000000 -0.000000000  0.054945055

  length of vectors
    18.000000000 18.100000000 18.200000000     0.055555556  0.055248619  0.054945055

  position of ions in fractional coordinates (direct lattice)
     0.000000000  0.000000000  0.000000000

  ion indices of the primitive-cell ions
   primitive index   ion index
                 1           1

----------------------------------------------------------------------------------------

 
 
 KPOINTS: Automatic kpoint scheme                 

Automatic generation of k-mesh.
 Grid dimensions read from file:
 generate k-points for:    1    1    1

 Generating k-lattice:

  Cartesian coordinates                     Fractional coordinates (reciprocal lattice)
     0.055555556 -0.000000000  0.000000000     1.000000000 -0.000000000  0.000000000
     0.000000000  0.055248619  0.000000000     0.000000000  1.000000000  0.000000000
    -0.000000000 -0.000000000  0.054945055    -0.000000000 -0.000000000  1.000000000

  Length of vectors
     0.055555556  0.055248619  0.054945055

  Shift w.r.t. Gamma in fractional coordinates (k-lattice)
     0.000000000  0.000000000  0.000000000

 
 Subroutine IBZKPT returns following result:
 ===========================================
 
 Found      1 irreducible k-points:
 
 Following reciprocal coordinates:
            Coordinates               Weight
  0.000000  0.000000  0.000000      1.000000
 
 Following cartesian coordinates:
            Coordinates               Weight
  0.000000  0.000000  0.000000      1.000000
 


--------------------------------------------------------------------------------------------------------




 Dimension of arrays:
   k-points           NKPTS =      1   k-points in BZ     NKDIM =      1   number of bands    NBANDS=      8
   number of dos      NEDOS =    301   number of ions     NIONS =      1
   non local maximal  LDIM  =      4   non local SUM 2l+1 LMDIM =      8
   total plane-waves  NPLWV = ******
   max r-space proj   IRMAX =      1   max aug-charges    IRDMAX=   6082
   dimension x,y,z NGX =   140 NGY =  140 NGZ =  140
   dimension x,y,z NGXF=   280 NGYF=  280 NGZF=  280
   support grid    NGXF=   280 NGYF=  280 NGZF=  280
   ions per type =               1
   NGX,Y,Z   is equivalent  to a cutoff of  12.93, 12.86, 12.79 a.u.
   NGXF,Y,Z  is equivalent  to a cutoff of  25.86, 25.72, 25.58 a.u.

 SYSTEM =  F_atom_ispin1                           
 POSCAR =  F1                                      

 Startparameter for this run:
   NWRITE =      2    write-flag & timer
   PREC   = accura    normal or accurate (medium, high low for compatibility)
   ISTART =      0    job   : 0-new  1-cont  2-samecut
   ICHARG =      2    charge: 1-file 2-atom 10-const
   ISPIN  =      1    spin polarized calculation?
   LNONCOLLINEAR =      F non collinear calculations
   LSORBIT =      F    spin-orbit coupling
   INIWAV =      1    electr: 0-lowe 1-rand  2-diag
   LASPH  =      T    aspherical Exc in radial PAW
 Electronic Relaxation 1
   ENCUT  =  520.0 eV  38.22 Ry    6.18 a.u.  33.47 33.65 33.84*2*pi/ulx,y,z
   ENINI  =  520.0     initial cutoff
   ENAUG  =  613.6 eV  augmentation charge cutoff
   NELM   =    400;   NELMIN=  2; NELMDL= -5     # of ELM steps 
   EDIFF  = 0.1E-04   stopping-criterion for ELM
   LREAL  =      F    real-space projection
   NLSPLINE    = F    spline interpolate recip. space projectors
   LCOMPAT=      F    compatible to vasp.4.4
   GGA_COMPAT  = F    GGA compatible to vasp.4.4-vasp.4.6
   LMAXPAW     = -100 max onsite density
   LMAXMIX     =    6 max onsite mixed and CHGCAR
   VOSKOWN=      0    Vosko Wilk Nusair interpolation
   ROPT   =    0.00000
 Ionic relaxation
   EDIFFG = 0.1E-03   stopping-criterion for IOM
   NSW    =      0    number of steps for IOM
   NBLOCK =      1;   KBLOCK =      1    inner block; outer block 
   IBRION =     -1    ionic relax: 0-MD 1-quasi-New 2-CG
   NFREE  =      0    steps in history (QN), initial steepest desc. (CG)
   ISIF   =      2    stress and relaxation
   IWAVPR =     10    prediction:  0-non 1-charg 2-wave 3-comb
   ISYM   =      0    0-nonsym 1-usesym 2-fastsym
   LCORR  =      T    Harris-Foulkes like correction to forces

   POTIM  = 0.5000    time-step for ionic-motion
   TEIN   =    0.0    initial temperature
   TEBEG  =    0.0;   TEEND  =   0.0 temperature during run
   SMASS  =  -3.00    Nose mass-parameter (am)
   estimated Nose-frequenzy (Omega)   =  0.10E-29 period in steps = 0.13E+47 mass=  -0.740E-26a.u.
   SCALEE = 1.0000    scale energy and forces
   NPACO  =    256;   APACO  = 10.0  distance and # of slots for P.C.
   PSTRESS=    0.0 pullay stress

  Mass of Ions in am
   POMASS =  19.00
  Ionic Valenz
   ZVAL   =   7.00
  Atomic Wigner-Seitz radii
   RWIGS  =  -1.00
  virtual crystal weights 
   VCA    =   1.00
   NELECT =       7.0000    total number of electrons
   NUPDOWN=      -1.0000    fix difference up-down

 DOS related values:
   EMIN   =  10.00;   EMAX   =-10.00  energy-range for DOS
   EFERMI =   0.00;   METHOD = MIDGAP      
   ISMEAR =     0;   SIGMA  =   0.05  broadening in eV -4-tet -1-fermi 0-gaus

 Electronic relaxation 2 (details)
   IALGO  =     38    algorithm
   LDIAG  =      T    sub-space diagonalisation (order eigenvalues)
   LSUBROT=      F    optimize rotation matrix (better conditioning)
   TURBO    =      0    0=normal 1=particle mesh
   IRESTART =      0    0=no restart 2=restart with 2 vectors
   NREBOOT  =      0    no. of reboots
   NMIN     =      0    reboot dimension
   EREF     =   0.00    reference energy to select bands
   IMIX   =      4    mixing-type and parameters
     AMIX     =   0.40;   BMIX     =  1.00
     AMIX_MAG =   1.60;   BMIX_MAG =  1.00
     AMIN     =   0.10
     WC   =   100.;   INIMIX=   1;  MIXPRE=   1;  MAXMIX= -45

 Intra band minimization:
   WEIMIN = 0.0000     energy-eigenvalue tresh-hold
   EBREAK =  0.31E-06  absolut break condition
   DEPER  =   0.30     relativ break condition  

   TIME   =   0.40     timestep for ELM

  volume/ion in A,a.u.               =    5929.56     40014.65
  Fermi-wavevector in a.u.,A,eV,Ry     =   0.173021  0.326963  0.407310  0.029936
  Thomas-Fermi vector in A             =   0.886960
 
 Write flags
   LWAVE        =      F    write WAVECAR
   LDOWNSAMPLE  =      F    k-point downsampling of WAVECAR
   LCHARG       =      F    write CHGCAR
   LVTOT        =      F    write LOCPOT, total local potential
   LVHAR        =      F    write LOCPOT, Hartree potential only
   LELF         =      F    write electronic localiz. function (ELF)
   LORBIT       =      0    0 simple, 1 ext, 2 COOP (PROOUT), +10 PAW based schemes


 Dipole corrections
   LMONO  =      F    monopole corrections only (constant potential shift)
   LDIPOL =      F    correct potential (dipole corrections)
   IDIPOL =      0    1-x, 2-y, 3-z, 4-all directions 
   EPSILON=  1.0000000 bulk dielectric constant

 Exchange correlation treatment:
   GGA     =    PE    GGA type
   LEXCH   =     8    internal setting for exchange type
   LIBXC   =     F    Libxc                    
   VOSKOWN =     0    Vosko Wilk Nusair interpolation
   LHFCALC =     F    Hartree Fock is set to
   LHFONE  =     F    Hartree Fock one center treatment
   AEXX    =    0.0000 exact exchange contribution

 Linear response parameters
   LEPSILON=     F    determine dielectric tensor
   LRPA    =     F    only Hartree local field effects (RPA)
   LNABLA  =     F    use nabla operator in PAW spheres
   LVEL    =     F    velocity operator in full k-point grid
   CSHIFT  =0.1000    complex shift for real part using Kramers Kronig
   OMEGAMAX=  -1.0    maximum frequency
   DEG_THRESHOLD= 0.2000000E-02 threshold for treating states as degnerate
   RTIME   =   -0.100 relaxation time in fs
  (WPLASMAI=    0.000 imaginary part of plasma frequency in eV, 0.658/RTIME)
   DFIELD  = 0.0000000 0.0000000 0.0000000 field for delta impulse in time
 
  Optional k-point grid parameters
   LKPOINTS_OPT  =     F    use optional k-point grid
   KPOINTS_OPT_MODE=     1    mode for optional k-point grid
 
 Orbital magnetization related:
   ORBITALMAG=     F  switch on orbital magnetization
   LCHIMAG   =     F  perturbation theory with respect to B field
   DQ        =  0.001000  dq finite difference perturbation B field
   LLRAUG    =     F  two centre corrections for induced B field
   LBONE     =     F  B-component reconstruction in AE one-centre
   LVGVCALC  =     T  calculate vGv susceptibility
   LVGVAPPL  =     F  apply vGv susceptibility instead of pGv for G=0

 Random number generation:
   RANDOM_GENERATOR = DEFAULT
   PCG_SEED         = not used


--------------------------------------------------------------------------------------------------------


 Static calculation
 charge density and potential will be updated during run
 non-spin polarized calculation
 Variant of blocked Davidson
 Davidson routine will perform the subspace rotation
 perform sub-space diagonalisation
    after iterative eigenvector-optimisation
 modified Broyden-mixing scheme, WC =      100.0
 initial mixing is a Kerker type mixing with AMIX =  0.4000 and BMIX =      1.0000
 Hartree-type preconditioning will be used
 using additional bands            4
 reciprocal scheme for non local part
 use partial core corrections
 calculate Harris-corrections to forces 
   (improved forces if not selfconsistent)
 use gradient corrections 
 use of overlap-Matrix (Vanderbilt PP)
 Gauss-broadening in eV      SIGMA  =   0.05


--------------------------------------------------------------------------------------------------------


  energy-cutoff  :      520.00
  volume of cell :     5929.56
      direct lattice vectors                 reciprocal lattice vectors
    18.000000000  0.000000000  0.000000000     0.055555556 -0.000000000  0.000000000
     0.000000000 18.100000000  0.000000000     0.000000000  0.055248619  0.000000000
     0.000000000  0.000000000 18.200000000    -0.000000000 -0.000000000  0.054945055

  length of vectors
    18.000000000 18.100000000 18.200000000     0.055555556  0.055248619  0.054945055


 
 k-points in units of 2pi/SCALE and weight: Automatic kpoint scheme                 
   0.00000000  0.00000000  0.00000000       1.000
 
 k-points in reciprocal lattice and weights: Automatic kpoint scheme                 
   0.00000000  0.00000000  0.00000000       1.000
 
 position of ions in fractional coordinates (direct lattice) 
   0.00000000  0.00000000  0.00000000
 
 position of ions in cartesian coordinates  (Angst):
   0.00000000  0.00000000  0.00000000
 


--------------------------------------------------------------------------------------------------------


 use parallel FFT for orbitals z direction half grid
 k-point   1 :   0.0000 0.0000 0.0000  plane waves:   79868

 maximum and minimum number of plane-waves per node :      2508     2479

 maximum number of plane-waves:     79868
 maximum index in each direction: 
   IXMAX=   33   IYMAX=   33   IZMAX=   33
   IXMIN=  -33   IYMIN=  -33   IZMIN=    0


 parallel 3D FFT for wavefunctions:
    minimum data exchange during FFTs selected (reduces bandwidth)
 parallel 3D FFT for charge:
    minimum data exchange during FFTs selected (reduces bandwidth)


 total amount of memory used by VASP MPI-rank0    68130. kBytes
=======================================================================

   base      :      30000. kBytes
   nonl-proj :        198. kBytes
   fftplans  :      14937. kBytes
   grid      :      22836. kBytes
   one-center:          1. kBytes
   wavefun   :        158. kBytes
 
     INWAV:  cpu time      0.0000: real time      0.0003
 Broyden mixing: mesh for mixing (old mesh)
   NGX = 67   NGY = 67   NGZ = 67
  (NGX  =280   NGY  =280   NGZ  =280)
  gives a total of 300763 points

 initial charge density was supplied:
 charge density of overlapping atoms calculated
 number of electron       7.0000000 magnetization 
 keeping initial charge density in first step


--------------------------------------------------------------------------------------------------------


 Maximum index for augmentation-charges          381 (set IRDMAX)


--------------------------------------------------------------------------------------------------------


 First call to EWALD:  gamma=   0.098
 Maximum number of real-space cells 3x 3x 3
 Maximum number of reciprocal cells 3x 3x 3

    FEWALD:  cpu time      0.0019: real time      0.0019


--------------------------------------- Ionic step        1  -------------------------------------------




--------------------------------------- Iteration      1(   1)  ---------------------------------------


    POTLOK:  cpu time      0.2179: real time      0.2197
    SETDIJ:  cpu time      0.0448: real time      0.0452
     EDDAV:  cpu time      0.0494: real time      0.0498
       DOS:  cpu time      0.0005: real time      0.0006
    --------------------------------------------
      LOOP:  cpu time      0.3127: real time      0.3153

 eigenvalue-minimisations  :    16
 total energy-change (2. order) : 0.7157309E+02  (-0.8308490E+02)
 number of electron       7.0000000 magnetization 
 augmentation part        7.0000000 magnetization 

 Free energy of the ion-electron system (eV)
  ---------------------------------------------------
  alpha Z        PSCENC =         0.02961964
  Ewald energy   TEWEN  =       -55.30181893
  -Hartree energ DENC   =      -520.14691726
  -exchange      EXHF   =         0.00000000
  -V(xc)+E(xc)   XCENC  =        36.14197957
  PAW double counting   =       539.20781056     -544.30938997
  entropy T*S    EENTRO =        -0.02847762
  eigenvalues    EBANDS =       -43.63488775
  atomic energy  EATOM  =       659.61517142
  Solvation  Ediel_sol  =         0.00000000
  ---------------------------------------------------
  free energy    TOTEN  =        71.57308965 eV

  energy without entropy =       71.60156728  energy(sigma->0) =       71.58732847


--------------------------------------------------------------------------------------------------------




--------------------------------------- Iteration      1(   2)  ---------------------------------------


     EDDAV:  cpu time      0.0464: real time      0.0472
       DOS:  cpu time      0.0003: real time      0.0003
    --------------------------------------------
      LOOP:  cpu time      0.0467: real time      0.0476

 eigenvalue-minimisations  :    16
 total energy-change (2. order) :-0.1475169E+02  (-0.1474237E+02)
 number of electron       7.0000000 magnetization 
 augmentation part        7.0000000 magnetization 

 Free energy of the ion-electron system (eV)
  ---------------------------------------------------
  alpha Z        PSCENC =         0.02961964
  Ewald energy   TEWEN  =       -55.30181893
  -Hartree energ DENC   =      -520.14691726
  -exchange      EXHF   =         0.00000000
  -V(xc)+E(xc)   XCENC  =        36.14197957
  PAW double counting   =       539.20781056     -544.30938997
  entropy T*S    EENTRO =        -0.04344124
  eigenvalues    EBANDS =       -58.37161738
  atomic energy  EATOM  =       659.61517142
  Solvation  Ediel_sol  =         0.00000000
  ---------------------------------------------------
  free energy    TOTEN  =        56.82139641 eV

  energy without entropy =       56.86483765  energy(sigma->0) =       56.84311703


--------------------------------------------------------------------------------------------------------




--------------------------------------- Iteration      1(   3)  ---------------------------------------


     EDDAV:  cpu time      0.0761: real time      0.0767
       DOS:  cpu time      0.0004: real time      0.0003
    --------------------------------------------
      LOOP:  cpu time      0.0765: real time      0.0771

 eigenvalue-minimisations  :    32
 total energy-change (2. order) :-0.3205227E+02  (-0.3032157E+02)
 number of electron       7.0000000 magnetization 
 augmentation part        7.0000000 magnetization 

 Free energy of the ion-electron system (eV)
  ---------------------------------------------------
  alpha Z        PSCENC =         0.02961964
  Ewald energy   TEWEN  =       -55.30181893
  -Hartree energ DENC   =      -520.14691726
  -exchange      EXHF   =         0.00000000
  -V(xc)+E(xc)   XCENC  =        36.14197957
  PAW double counting   =       539.20781056     -544.30938997
  entropy T*S    EENTRO =        -0.02820948
  eigenvalues    EBANDS =       -90.43911593
  atomic energy  EATOM  =       659.61517142
  Solvation  Ediel_sol  =         0.00000000
  ---------------------------------------------------
  free energy    TOTEN  =        24.76912961 eV

  energy without entropy =       24.79733909  energy(sigma->0) =       24.78323435


--------------------------------------------------------------------------------------------------------




--------------------------------------- Iteration      1(   4)  ---------------------------------------


     EDDAV:  cpu time      0.0456: real time      0.0459
       DOS:  cpu time      0.0005: real time      0.0006
    --------------------------------------------
      LOOP:  cpu time      0.0461: real time      0.0465

 eigenvalue-minimisations  :    16
 total energy-change (2. order) :-0.2383947E+02  (-0.2383621E+02)
 number of electron       7.0000000 magnetization 
 augmentation part        7.0000000 magnetization 

 Free energy of the ion-electron system (eV)
  ---------------------------------------------------
  alpha Z        PSCENC =         0.02961964
  Ewald energy   TEWEN  =       -55.30181893
  -Hartree energ DENC   =      -520.14691726
  -exchange      EXHF   =         0.00000000
  -V(xc)+E(xc)   XCENC  =        36.14197957
  PAW double counting   =       539.20781056     -544.30938997
  entropy T*S    EENTRO =        -0.03835193
  eigenvalues    EBANDS =      -114.26844054
  atomic energy  EATOM  =       659.61517142
  Solvation  Ediel_sol  =         0.00000000
  ---------------------------------------------------
  free energy    TOTEN  =         0.92966255 eV

  energy without entropy =        0.96801449  energy(sigma->0) =        0.94883852


--------------------------------------------------------------------------------------------------------




--------------------------------------- Iteration      1(   5)  ---------------------------------------


     EDDAV:  cpu time      0.0457: real time      0.0460
       DOS:  cpu time      0.0003: real time      0.0003
    CHARGE:  cpu time      0.0208: real time      0.0210
    MIXING:  cpu time      0.0050: real time      0.0050
    --------------------------------------------
      LOOP:  cpu time      0.0718: real time      0.0723

 eigenvalue-minimisations  :    16
 total energy-change (2. order) :-0.9883146E+00  (-0.9740915E+00)
 number of electron       7.0000005 magnetization 
 augmentation part        1.1893975 magnetization 

 Broyden mixing:
  rms(total) = 0.10670E-01    rms(broyden)= 0.10019E-01
  rms(prec ) = 0.10316E-01
  weight for this iteration     100.00

 Free energy of the ion-electron system (eV)
  ---------------------------------------------------
  alpha Z        PSCENC =         0.02961964
  Ewald energy   TEWEN  =       -55.30181893
  -Hartree energ DENC   =      -520.14691726
  -exchange      EXHF   =         0.00000000
  -V(xc)+E(xc)   XCENC  =        36.14197957
  PAW double counting   =       539.20781056     -544.30938997
  entropy T*S    EENTRO =        -0.05299755
  eigenvalues    EBANDS =      -115.24210947
  atomic energy  EATOM  =       659.61517142
  Solvation  Ediel_sol  =         0.00000000
  ---------------------------------------------------
  free energy    TOTEN  =        -0.05865200 eV

  energy without entropy =       -0.00565445  energy(sigma->0) =       -0.03215322


--------------------------------------------------------------------------------------------------------




--------------------------------------- Iteration      1(   6)  ---------------------------------------


    POTLOK:  cpu time      0.2209: real time      0.2226
    SETDIJ:  cpu time      0.0446: real time      0.0448
     EDDAV:  cpu time      0.0483: real time      0.0486
       DOS:  cpu time      0.0004: real time      0.0004
    CHARGE:  cpu time      0.0201: real time      0.0203
    MIXING:  cpu time      0.0044: real time      0.0044
    --------------------------------------------
      LOOP:  cpu time      0.3386: real time      0.3411

 eigenvalue-minimisations  :    16
 total energy-change (2. order) :-0.7299651E-02  (-0.7399284E-02)
 number of electron       7.0000005 magnetization 
 augmentation part        1.1903781 magnetization 

 Broyden mixing:
  rms(total) = 0.42547E-01    rms(broyden)= 0.42363E-01
  rms(prec ) = 0.43602E-01
  weight for this iteration     100.00

 eigenvalues of (default mixing * dielectric matrix)
  average eigenvalue GAMMA=   0.1364
  0.1364

 Free energy of the ion-electron system (eV)
  ---------------------------------------------------
  alpha Z        PSCENC =         0.02961964
  Ewald energy   TEWEN  =       -55.30181893
  -Hartree energ DENC   =      -520.03736257
  -exchange      EXHF   =         0.00000000
  -V(xc)+E(xc)   XCENC  =        36.13572666
  PAW double counting   =       539.03862229     -544.14878838
  entropy T*S    EENTRO =        -0.05286691
  eigenvalues    EBANDS =      -115.34425488
  atomic energy  EATOM  =       659.61517142
  Solvation  Ediel_sol  =         0.00000000
  ---------------------------------------------------
  free energy    TOTEN  =        -0.06595165 eV

  energy without entropy =       -0.01308475  energy(sigma->0) =       -0.03951820


--------------------------------------------------------------------------------------------------------




--------------------------------------- Iteration      1(   7)  ---------------------------------------


    POTLOK:  cpu time      0.2238: real time      0.2256
    SETDIJ:  cpu time      0.0444: real time      0.0446
     EDDAV:  cpu time      0.0469: real time      0.0472
       DOS:  cpu time      0.0003: real time      0.0003
    CHARGE:  cpu time      0.0204: real time      0.0205
    MIXING:  cpu time      0.0044: real time      0.0045
    --------------------------------------------
      LOOP:  cpu time      0.3404: real time      0.3427

 eigenvalue-minimisations  :    16
 total energy-change (2. order) : 0.1052643E-02  (-0.1913032E-03)
 number of electron       7.0000005 magnetization 
 augmentation part        1.1911456 magnetization 

 Broyden mixing:
  rms(total) = 0.66798E-02    rms(broyden)= 0.61732E-02
  rms(prec ) = 0.63527E-02
  weight for this iteration     100.00

 eigenvalues of (default mixing * dielectric matrix)
  average eigenvalue GAMMA=   0.4925
  0.8432  0.1419

 Free energy of the ion-electron system (eV)
  ---------------------------------------------------
  alpha Z        PSCENC =         0.02961964
  Ewald energy   TEWEN  =       -55.30181893
  -Hartree energ DENC   =      -520.04356461
  -exchange      EXHF   =         0.00000000
  -V(xc)+E(xc)   XCENC  =        36.13689139
  PAW double counting   =       539.04850951     -544.15980088
  entropy T*S    EENTRO =        -0.05300117
  eigenvalues    EBANDS =      -115.33690537
  atomic energy  EATOM  =       659.61517142
  Solvation  Ediel_sol  =         0.00000000
  ---------------------------------------------------
  free energy    TOTEN  =        -0.06489901 eV

  energy without entropy =       -0.01189784  energy(sigma->0) =       -0.03839843


--------------------------------------------------------------------------------------------------------




--------------------------------------- Iteration      1(   8)  ---------------------------------------


    POTLOK:  cpu time      0.2213: real time      0.2230
    SETDIJ:  cpu time      0.0445: real time      0.0447
     EDDAV:  cpu time      0.0468: real time      0.0472
       DOS:  cpu time      0.0003: real time      0.0003
    CHARGE:  cpu time      0.0207: real time      0.0209
    MIXING:  cpu time      0.0044: real time      0.0044
    --------------------------------------------
      LOOP:  cpu time      0.3381: real time      0.3405

 eigenvalue-minimisations  :    16
 total energy-change (2. order) :-0.1047428E-02  (-0.2169832E-04)
 number of electron       7.0000005 magnetization 
 augmentation part        1.1906271 magnetization 

 Broyden mixing:
  rms(total) = 0.65909E-02    rms(broyden)= 0.65511E-02
  rms(prec ) = 0.67181E-02
  weight for this iteration     100.00

 eigenvalues of (default mixing * dielectric matrix)
  average eigenvalue GAMMA=   0.5442
  1.1529  0.1409  0.3388

 Free energy of the ion-electron system (eV)
  ---------------------------------------------------
  alpha Z        PSCENC =         0.02961964
  Ewald energy   TEWEN  =       -55.30181893
  -Hartree energ DENC   =      -520.11654407
  -exchange      EXHF   =         0.00000000
  -V(xc)+E(xc)   XCENC  =        36.14058385
  PAW double counting   =       539.17814749     -544.29773477
  entropy T*S    EENTRO =        -0.05299893
  eigenvalues    EBANDS =      -115.26037214
  atomic energy  EATOM  =       659.61517142
  Solvation  Ediel_sol  =         0.00000000
  ---------------------------------------------------
  free energy    TOTEN  =        -0.06594644 eV

  energy without entropy =       -0.01294751  energy(sigma->0) =       -0.03944697


--------------------------------------------------------------------------------------------------------




--------------------------------------- Iteration      1(   9)  ---------------------------------------


    POTLOK:  cpu time      0.2196: real time      0.2213
    SETDIJ:  cpu time      0.0445: real time      0.0447
     EDDAV:  cpu time      0.0783: real time      0.0791
       DOS:  cpu time      0.0003: real time      0.0003
    CHARGE:  cpu time      0.0208: real time      0.0208
    MIXING:  cpu time      0.0045: real time      0.0045
    --------------------------------------------
      LOOP:  cpu time      0.3682: real time      0.3709

 eigenvalue-minimisations  :    32
 total energy-change (2. order) :-0.9028685E-04  (-0.1809690E-04)
 number of electron       7.0000005 magnetization 
 augmentation part        1.1904811 magnetization 

 Broyden mixing:
  rms(total) = 0.11520E-01    rms(broyden)= 0.11408E-01
  rms(prec ) = 0.11737E-01
  weight for this iteration     100.00

 eigenvalues of (default mixing * dielectric matrix)
  average eigenvalue GAMMA=   0.7970
  2.2244  0.6742  0.1387  0.1507

 Free energy of the ion-electron system (eV)
  ---------------------------------------------------
  alpha Z        PSCENC =         0.02961964
  Ewald energy   TEWEN  =       -55.30181893
  -Hartree energ DENC   =      -520.14088883
  -exchange      EXHF   =         0.00000000
  -V(xc)+E(xc)   XCENC  =        36.14195140
  PAW double counting   =       539.23659916     -544.36011262
  entropy T*S    EENTRO =        -0.05299184
  eigenvalues    EBANDS =      -115.23356611
  atomic energy  EATOM  =       659.61517142
  Solvation  Ediel_sol  =         0.00000000
  ---------------------------------------------------
  free energy    TOTEN  =        -0.06603672 eV

  energy without entropy =       -0.01304488  energy(sigma->0) =       -0.03954080


--------------------------------------------------------------------------------------------------------




--------------------------------------- Iteration      1(  10)  ---------------------------------------


    POTLOK:  cpu time      0.2294: real time      0.2310
    SETDIJ:  cpu time      0.0445: real time      0.0448
     EDDAV:  cpu time      0.0625: real time      0.0629
       DOS:  cpu time      0.0003: real time      0.0003
    CHARGE:  cpu time      0.0202: real time      0.0204
    MIXING:  cpu time      0.0048: real time      0.0049
    --------------------------------------------
      LOOP:  cpu time      0.3619: real time      0.3643

 eigenvalue-minimisations  :    24
 total energy-change (2. order) :-0.3578114E-04  (-0.1009204E-04)
 number of electron       7.0000005 magnetization 
 augmentation part        1.1902648 magnetization 

 Broyden mixing:
  rms(total) = 0.31141E-02    rms(broyden)= 0.29526E-02
  rms(prec ) = 0.30535E-02
  weight for this iteration     100.00

 eigenvalues of (default mixing * dielectric matrix)
  average eigenvalue GAMMA=   0.8082
  2.2687  0.7436  0.7436  0.1447  0.1406

 Free energy of the ion-electron system (eV)
  ---------------------------------------------------
  alpha Z        PSCENC =         0.02961964
  Ewald energy   TEWEN  =       -55.30181893
  -Hartree energ DENC   =      -520.17355697
  -exchange      EXHF   =         0.00000000
  -V(xc)+E(xc)   XCENC  =        36.14381501
  PAW double counting   =       539.34689554     -544.47803088
  entropy T*S    EENTRO =        -0.05300086
  eigenvalues    EBANDS =      -115.19516646
  atomic energy  EATOM  =       659.61517142
  Solvation  Ediel_sol  =         0.00000000
  ---------------------------------------------------
  free energy    TOTEN  =        -0.06607251 eV

  energy without entropy =       -0.01307164  energy(sigma->0) =       -0.03957207


--------------------------------------------------------------------------------------------------------




--------------------------------------- Iteration      1(  11)  ---------------------------------------


    POTLOK:  cpu time      0.2236: real time      0.2252
    SETDIJ:  cpu time      0.0446: real time      0.0448
     EDDAV:  cpu time      0.0774: real time      0.0780
       DOS:  cpu time      0.0004: real time      0.0004
    CHARGE:  cpu time      0.0202: real time      0.0203
    MIXING:  cpu time      0.0049: real time      0.0049
    --------------------------------------------
      LOOP:  cpu time      0.3711: real time      0.3736

 eigenvalue-minimisations  :    32
 total energy-change (2. order) :-0.1355110E-03  (-0.2720028E-05)
 number of electron       7.0000005 magnetization 
 augmentation part        1.1903650 magnetization 

 Broyden mixing:
  rms(total) = 0.42163E-02    rms(broyden)= 0.41819E-02
  rms(prec ) = 0.43083E-02
  weight for this iteration     100.00

 eigenvalues of (default mixing * dielectric matrix)
  average eigenvalue GAMMA=   0.8404
  2.4755  1.1488  0.9960  0.1493  0.1395  0.1330

 Free energy of the ion-electron system (eV)
  ---------------------------------------------------
  alpha Z        PSCENC =         0.02961964
  Ewald energy   TEWEN  =       -55.30181893
  -Hartree energ DENC   =      -520.15550465
  -exchange      EXHF   =         0.00000000
  -V(xc)+E(xc)   XCENC  =        36.14254651
  PAW double counting   =       539.34261289     -544.47341840
  entropy T*S    EENTRO =        -0.05300008
  eigenvalues    EBANDS =      -115.21241640
  atomic energy  EATOM  =       659.61517142
  Solvation  Ediel_sol  =         0.00000000
  ---------------------------------------------------
  free energy    TOTEN  =        -0.06620802 eV

  energy without entropy =       -0.01320793  energy(sigma->0) =       -0.03970797


--------------------------------------------------------------------------------------------------------




--------------------------------------- Iteration      1(  12)  ---------------------------------------


    POTLOK:  cpu time      0.2196: real time      0.2211
    SETDIJ:  cpu time      0.0444: real time      0.0446
     EDDAV:  cpu time      0.0620: real time      0.0625
       DOS:  cpu time      0.0004: real time      0.0003
    CHARGE:  cpu time      0.0202: real time      0.0203
    MIXING:  cpu time      0.0077: real time      0.0077
    --------------------------------------------
      LOOP:  cpu time      0.3543: real time      0.3567

 eigenvalue-minimisations  :    24
 total energy-change (2. order) : 0.4235725E-04  (-0.1210057E-05)
 number of electron       7.0000005 magnetization 
 augmentation part        1.1904704 magnetization 

 Broyden mixing:
  rms(total) = 0.12689E-02    rms(broyden)= 0.12159E-02
  rms(prec ) = 0.12519E-02
  weight for this iteration     100.00

 eigenvalues of (default mixing * dielectric matrix)
  average eigenvalue GAMMA=   0.8664
  2.4992  1.2463  0.9476  0.9476  0.1473  0.1405  0.1365

 Free energy of the ion-electron system (eV)
  ---------------------------------------------------
  alpha Z        PSCENC =         0.02961964
  Ewald energy   TEWEN  =       -55.30181893
  -Hartree energ DENC   =      -520.13722698
  -exchange      EXHF   =         0.00000000
  -V(xc)+E(xc)   XCENC  =        36.14140724
  PAW double counting   =       539.34075646     -544.47135286
  entropy T*S    EENTRO =        -0.05300128
  eigenvalues    EBANDS =      -115.22972036
  atomic energy  EATOM  =       659.61517142
  Solvation  Ediel_sol  =         0.00000000
  ---------------------------------------------------
  free energy    TOTEN  =        -0.06616566 eV

  energy without entropy =       -0.01316438  energy(sigma->0) =       -0.03966502


--------------------------------------------------------------------------------------------------------




--------------------------------------- Iteration      1(  13)  ---------------------------------------


    POTLOK:  cpu time      0.2260: real time      0.2275
    SETDIJ:  cpu time      0.0445: real time      0.0446
     EDDAV:  cpu time      0.0794: real time      0.0799
       DOS:  cpu time      0.0003: real time      0.0003
    CHARGE:  cpu time      0.0198: real time      0.0200
    MIXING:  cpu time      0.0051: real time      0.0052
    --------------------------------------------
      LOOP:  cpu time      0.3751: real time      0.3776

 eigenvalue-minimisations  :    32
 total energy-change (2. order) :-0.4432579E-04  (-0.8745034E-07)
 number of electron       7.0000005 magnetization 
 augmentation part        1.1904635 magnetization 

 Broyden mixing:
  rms(total) = 0.30867E-03    rms(broyden)= 0.28568E-03
  rms(prec ) = 0.29468E-03
  weight for this iteration     100.00

 eigenvalues of (default mixing * dielectric matrix)
  average eigenvalue GAMMA=   0.7811
  2.5017  1.2824  0.9347  0.9347  0.1469  0.1404  0.1347  0.1730

 Free energy of the ion-electron system (eV)
  ---------------------------------------------------
  alpha Z        PSCENC =         0.02961964
  Ewald energy   TEWEN  =       -55.30181893
  -Hartree energ DENC   =      -520.13888585
  -exchange      EXHF   =         0.00000000
  -V(xc)+E(xc)   XCENC  =        36.14145609
  PAW double counting   =       539.34719610     -544.47794176
  entropy T*S    EENTRO =        -0.05300138
  eigenvalues    EBANDS =      -115.22800529
  atomic energy  EATOM  =       659.61517142
  Solvation  Ediel_sol  =         0.00000000
  ---------------------------------------------------
  free energy    TOTEN  =        -0.06620998 eV

  energy without entropy =       -0.01320860  energy(sigma->0) =       -0.03970929


--------------------------------------------------------------------------------------------------------




--------------------------------------- Iteration      1(  14)  ---------------------------------------


    POTLOK:  cpu time      0.2221: real time      0.2237
    SETDIJ:  cpu time      0.0445: real time      0.0447
     EDDAV:  cpu time      0.0623: real time      0.0627
       DOS:  cpu time      0.0003: real time      0.0003
    CHARGE:  cpu time      0.0206: real time      0.0208
    MIXING:  cpu time      0.0051: real time      0.0051
    --------------------------------------------
      LOOP:  cpu time      0.3549: real time      0.3573

 eigenvalue-minimisations  :    24
 total energy-change (2. order) :-0.1067756E-04  (-0.7018733E-08)
 number of electron       7.0000005 magnetization 
 augmentation part        1.1904643 magnetization 

 Broyden mixing:
  rms(total) = 0.29132E-03    rms(broyden)= 0.29006E-03
  rms(prec ) = 0.29912E-03
  weight for this iteration     100.00

 eigenvalues of (default mixing * dielectric matrix)
  average eigenvalue GAMMA=   0.8654
  2.5413  1.7483  0.9957  0.9957  0.9427  0.1472  0.1401  0.1387  0.1387

 Free energy of the ion-electron system (eV)
  ---------------------------------------------------
  alpha Z        PSCENC =         0.02961964
  Ewald energy   TEWEN  =       -55.30181893
  -Hartree energ DENC   =      -520.13880336
  -exchange      EXHF   =         0.00000000
  -V(xc)+E(xc)   XCENC  =        36.14143963
  PAW double counting   =       539.34746596     -544.47820888
  entropy T*S    EENTRO =        -0.05300138
  eigenvalues    EBANDS =      -115.22808475
  atomic energy  EATOM  =       659.61517142
  Solvation  Ediel_sol  =         0.00000000
  ---------------------------------------------------
  free energy    TOTEN  =        -0.06622066 eV

  energy without entropy =       -0.01321928  energy(sigma->0) =       -0.03971997


--------------------------------------------------------------------------------------------------------




--------------------------------------- Iteration      1(  15)  ---------------------------------------


    POTLOK:  cpu time      0.2249: real time      0.2263
    SETDIJ:  cpu time      0.0444: real time      0.0446
     EDDAV:  cpu time      0.0783: real time      0.0789
       DOS:  cpu time      0.0003: real time      0.0003
    --------------------------------------------
      LOOP:  cpu time      0.3480: real time      0.3502

 eigenvalue-minimisations  :    32
 total energy-change (2. order) :-0.1668195E-05  (-0.5056192E-08)
 number of electron       7.0000005 magnetization 
 augmentation part        1.1904643 magnetization 

 Free energy of the ion-electron system (eV)
  ---------------------------------------------------
  alpha Z        PSCENC =         0.02961964
  Ewald energy   TEWEN  =       -55.30181893
  -Hartree energ DENC   =      -520.13898387
  -exchange      EXHF   =         0.00000000
  -V(xc)+E(xc)   XCENC  =        36.14142927
  PAW double counting   =       539.34969968     -544.48045274
  entropy T*S    EENTRO =        -0.05300139
  eigenvalues    EBANDS =      -115.22788541
  atomic energy  EATOM  =       659.61517142
  Solvation  Ediel_sol  =         0.00000000
  ---------------------------------------------------
  free energy    TOTEN  =        -0.06622233 eV

  energy without entropy =       -0.01322094  energy(sigma->0) =       -0.03972164


--------------------------------------------------------------------------------------------------------




 average (electrostatic) potential at core
  the test charge radii are     0.7167
  (the norm of the test charge is              1.0000)
       1 -87.5989
 
 
 
 E-fermi : -11.0585     XC(G=0):  -0.0819     alpha+bet : -0.0109

 Fermi energy:       -11.0584803433

 k-point     1 :       0.0000    0.0000    0.0000
  band No.  band energies     occupation 
      1     -29.8822      2.00000
      2     -11.0927      1.66674
      3     -11.0927      1.66664
      4     -11.0927      1.66662
      5      -0.1848      0.00000
      6       0.1450      0.00000
      7       0.4128      0.00000
      8       0.4179      0.00000


--------------------------------------------------------------------------------------------------------


 soft charge-density along one line, spin component           1
         0         1         2         3         4         5         6         7         8         9
 total charge-density along one line
 
 pseudopotential strength for first ion, spin component:           1
  9.796 -11.216  -0.000   0.000  -0.000   0.000  -0.000   0.000
-11.216  12.868   0.000  -0.000   0.000  -0.000   0.000  -0.000
 -0.000   0.000 -14.939  -0.000   0.000  17.208   0.000  -0.000
  0.000  -0.000  -0.000 -14.939  -0.000   0.000  17.208   0.000
 -0.000   0.000   0.000  -0.000 -14.939  -0.000   0.000  17.208
  0.000  -0.000  17.208   0.000  -0.000 -19.827  -0.000   0.000
 -0.000   0.000   0.000  17.208   0.000  -0.000 -19.827  -0.000
  0.000  -0.000  -0.000   0.000  17.208   0.000  -0.000 -19.827
 total augmentation occupancy for first ion, spin component:           1
  2.034   0.014   0.000   0.000   0.000   0.000   0.000   0.000
  0.014   0.000   0.000   0.000   0.000   0.000   0.000   0.000
  0.000   0.000   1.655  -0.000  -0.000  -0.005  -0.000  -0.000
  0.000   0.000  -0.000   1.655  -0.000  -0.000  -0.005   0.000
  0.000   0.000  -0.000  -0.000   1.654  -0.000   0.000  -0.005
  0.000   0.000  -0.005  -0.000  -0.000   0.000   0.000   0.000
  0.000   0.000  -0.000  -0.005   0.000   0.000   0.000  -0.000
  0.000   0.000  -0.000   0.000  -0.005   0.000  -0.000   0.000


------------------------ aborting loop because EDIFF is reached ----------------------------------------


    CHARGE:  cpu time      0.0201: real time      0.0202
    FORLOC:  cpu time      0.0034: real time      0.0034
    FORNL :  cpu time      0.0007: real time      0.0007
    STRESS:  cpu time      0.0120: real time      0.0121
    FORCOR:  cpu time      0.2336: real time      0.2350
    FORHAR:  cpu time      0.0604: real time      0.0609
    MIXING:  cpu time      0.0063: real time      0.0064
    OFIELD:  cpu time      0.0000: real time      0.0000

  FORCE on cell =-STRESS in cart. coord.  units (eV):
  Direction    XX          YY          ZZ          XY          YZ          ZX
  --------------------------------------------------------------------------------------
  Alpha Z     0.02962     0.02962     0.02962
  Ewald     -18.12359   -18.43417   -18.74406     0.00000     0.00000     0.00000
  Hartree   173.69025   173.38042   173.07184    -0.00067    -0.00002     0.00041
  E(xc)     -38.65035   -38.65034   -38.65036     0.00000    -0.00000     0.00000
  Local    -256.30984  -255.68760  -255.06829     0.00183     0.00008    -0.00112
  n-local   -37.30747   -37.30678   -37.30672     0.00031     0.00002    -0.00019
  augment    17.19797    17.19763    17.19744    -0.00018    -0.00001     0.00011
  Kinetic   159.42828   159.42695   159.42606    -0.00100    -0.00005     0.00062
  Fock        0.00000     0.00000     0.00000     0.00000     0.00000     0.00000
  -------------------------------------------------------------------------------------
  Total      -0.04515    -0.04426    -0.04447     0.00028     0.00001    -0.00017
  in kB      -0.01220    -0.01196    -0.01202     0.00008     0.00000    -0.00005
  external pressure =       -0.01 kB  Pullay stress =        0.00 kB


 VOLUME and BASIS-vectors are now :
 -----------------------------------------------------------------------------
  energy-cutoff  :      520.00
  volume of cell :     5929.56
      direct lattice vectors                 reciprocal lattice vectors
    18.000000000  0.000000000  0.000000000     0.055555556 -0.000000000  0.000000000
     0.000000000 18.100000000  0.000000000     0.000000000  0.055248619  0.000000000
     0.000000000  0.000000000 18.200000000    -0.000000000 -0.000000000  0.054945055

  length of vectors
    18.000000000 18.100000000 18.200000000     0.055555556  0.055248619  0.054945055


 FORCES acting on ions
    electron-ion (+dipol)            ewald-force                    non-local-force                 convergence-correction
 -----------------------------------------------------------------------------------------------
   0.136E-03 0.122E-03 0.304E-05   0.104E-16 0.346E-17 -.969E-17   0.858E-04 0.729E-04 0.298E-05   -.234E-03 -.200E-03 -.878E-05
 -----------------------------------------------------------------------------------------------
   0.136E-03 0.122E-03 0.304E-05   0.104E-16 0.346E-17 -.969E-17   0.858E-04 0.729E-04 0.298E-05   -.234E-03 -.200E-03 -.878E-05
 
 
 POSITION                                       TOTAL-FORCE (eV/Angst)
 -----------------------------------------------------------------------------------
      0.00000      0.00000      0.00000        -0.000012     -0.000005     -0.000003
 -----------------------------------------------------------------------------------
    total drift:                               -0.000012     -0.000005     -0.000003


--------------------------------------------------------------------------------------------------------



  FREE ENERGIE OF THE ION-ELECTRON SYSTEM (eV)
  ---------------------------------------------------
  free  energy   TOTEN  =        -0.06622233 eV

  energy  without entropy=       -0.01322094  energy(sigma->0) =       -0.03972164
 


--------------------------------------------------------------------------------------------------------


    POTLOK:  cpu time      0.2725: real time      0.2743


--------------------------------------------------------------------------------------------------------


     LOOP+:  cpu time      4.7594: real time      4.7944
    4ORBIT:  cpu time      0.0000: real time      0.0000

 total amount of memory used by VASP MPI-rank0    68130. kBytes
=======================================================================

   base      :      30000. kBytes
   nonl-proj :        198. kBytes
   fftplans  :      14937. kBytes
   grid      :      22836. kBytes
   one-center:          1. kBytes
   wavefun   :        158. kBytes
 
  
  
 General timing and accounting informations for this job:
 ========================================================
  
                  Total CPU time used (sec):        7.063
                            User time (sec):        5.939
                          System time (sec):        1.124
                         Elapsed time (sec):        7.660
  
                   Maximum memory used (kb):      454660.
                   Average memory used (kb):          N/A
  
                          Minor page faults:        71080
                          Major page faults:           24
                 Voluntary context switches:          720
