 vasp.6.4.2 20Jul23 (build Aug 07 2024 12:45:50) gamma-only                     
  
 executed on             LinuxIFC date 2026.09.30  12:19:59
 running   64 mpi-ranks, on    1 nodes
 distrk:  each k-point on   64 cores,    1 groups
 distr:  one band on NCORE=  32 cores,    2 groups


--------------------------------------------------------------------------------------------------------


 INCAR:
   ALGO = Normal
   EDIFF = 1e-05
   EFERMI = Midgap
   ENCUT = 520.0
   GGA = Pe
   GGA_COMPAT = False
   IBRION = -1
   ISMEAR = 0
   ISPIN = 2
   ISYM = 0
   LAECHG = False
   LASPH = True
   LCHARG = False
   LMAXMIX = 6
   LMIXTAU = True
   LREAL = False
   LWAVE = False
   MAGMOM = 1*1.0
   NCORE = 32
   NELM = 400
   NSW = 0
   PREC = Accurate
   SIGMA = 0.05
   SYSTEM = Na_atom_ispin2

 POTCAR:    PAW_PBE Na_pv 19Sep2006               
 -----------------------------------------------------------------------------
|                                                                             |
|           W    W    AA    RRRRR   N    N  II  N    N   GGGG   !!!           |
|           W    W   A  A   R    R  NN   N  II  NN   N  G    G  !!!           |
|           W    W  A    A  R    R  N N  N  II  N N  N  G       !!!           |
|           W WW W  AAAAAA  RRRRR   N  N N  II  N  N N  G  GGG   !            |
|           WW  WW  A    A  R   R   N   NN  II  N   NN  G    G                |
|           W    W  A    A  R    R  N    N  II  N    N   GGGG   !!!           |
|                                                                             |
|     For optimal performance we recommend to set                             |
|       NCORE = 2 up to number-of-cores-per-socket                            |
|     NCORE specifies how many cores store one orbital (NPAR=cpu/NCORE).      |
|     This setting can greatly improve the performance of VASP for DFT.       |
|     The default, NCORE=1 might be grossly inefficient on modern             |
|     multi-core architectures or massively parallel machines. Do your        |
|     own testing! More info at https://www.vasp.at/wiki/index.php/NCORE      |
|     Unfortunately you need to use the default for GW and RPA                |
|     calculations (for HF NCORE is supported but not extensively tested      |
|     yet).                                                                   |
|                                                                             |
 -----------------------------------------------------------------------------

 POTCAR:    PAW_PBE Na_pv 19Sep2006               
   SHA256 =  6a2f546d9e11350984debacf3dc457d8cffc0868e817d445faca461816a32b94 Na_pv/POTCAR          
   COPYR  = (c) Copyright 19Sep2006 Georg Kresse                                                    
   COPYR  = This file is part of the software VASP. Any use, copying, and all other rights are regul
   COPYR  = If you do not have a valid VASP license, you may not use, copy or distribute this file. 
   VRHFIN =Na: p6s1                                                                                 
   LEXCH  = PE                                                                                      
   EATOM  =   766.0439 eV,   56.3026 Ry                                                             
                                                                                                    
   TITEL  = PAW_PBE Na_pv 19Sep2006                                                                 
   LULTRA =        F    use ultrasoft PP ?                                                          
   IUNSCR =        1    unscreen: 0-lin 1-nonlin 2-no                                               
   RPACOR =    1.800    partial core radius                                                         
   POMASS =   22.990; ZVAL   =    7.000    mass and valenz                                          
   RCORE  =    2.200    outmost cutoff radius                                                       
   RWIGS  =    2.200; RWIGS  =    1.164    wigner-seitz radius (au A)                               
   ENMAX  =  259.561; ENMIN  =  194.671 eV                                                          
   ICORE  =        2    local potential                                                             
   LCOR   =        T    correct aug charges                                                         
   LPAW   =        T    paw PP                                                                      
   EAUG   =  368.056                                                                                
   DEXC   =    0.000                                                                                
   RMAX   =    2.245    core radius for proj-oper                                                   
   RAUG   =    1.300    factor for augmentation sphere                                              
   RDEP   =    2.259    radius for radial grids                                                     
   RDEPT  =    1.738    core radius for aug-charge                                                  
                                                                                                    
   Atomic configuration                                                                             
    5 entries                                                                                       
     n  l   j            E        occ.                                                              
     1  0  0.50     -1033.6933   2.0000                                                             
     2  0  0.50       -56.7526   2.0000                                                             
     2  1  1.50       -28.6721   6.0000                                                             
     3  0  0.50        -2.7440   1.0000                                                             
     3  2  1.50        -1.3606   0.0000                                                             
   Description                                                                                      
     l       E           TYP  RCUT    TYP  RCUT                                                     
     1    -28.6720912     23  2.000                                                                 
     1      6.8029130     23  2.000                                                                 
     0     -2.7439560     23  2.200                                                                 
     0     34.0145650     23  2.200                                                                 
     2     -1.3605826     23  2.200                                                                 
  local pseudopotential read in
  partial core-charges read in
  partial kinetic energy density read in
  atomic valenz-charges read in
  non local Contribution for L=           1  read in
    real space projection operators read in
  non local Contribution for L=           1  read in
    real space projection operators read in
  non local Contribution for L=           0  read in
    real space projection operators read in
  non local Contribution for L=           0  read in
    real space projection operators read in
    PAW grid and wavefunctions read in
 
   number of l-projection  operators is LMAX  =           4
   number of lm-projection operators is LMMAX =           8
 
  PAW_PBE Na_pv 19Sep2006               :
 energy of atom  1       EATOM= -766.0439
 kinetic energy error for atom=    0.0019 (will be added to EATOM!!)
 
 
 POSCAR: Na1
  positions in direct lattice
  No initial velocities read in
 exchange correlation table for  LEXCH =        8
   RHO(1)=    0.500       N(1)  =     2000
   RHO(2)=  100.500       N(2)  =     4000
 


--------------------------------------------------------------------------------------------------------


 ion  position               nearest neighbor table
   1  0.000  0.000  0.000-
 

IMPORTANT INFORMATION: All symmetrisations will be switched off!
NOSYMM: (Re-)initialisation of all symmetry stuff for point group C_1.


----------------------------------------------------------------------------------------

                                     Primitive cell                                     

  volume of cell :    3442.8000

  direct lattice vectors                    reciprocal lattice vectors
    15.000000000  0.000000000  0.000000000     0.066666667 -0.000000000  0.000000000
     0.000000000 15.100000000  0.000000000     0.000000000  0.066225166  0.000000000
     0.000000000  0.000000000 15.200000000    -0.000000000 -0.000000000  0.065789474

  length of vectors
    15.000000000 15.100000000 15.200000000     0.066666667  0.066225166  0.065789474

  position of ions in fractional coordinates (direct lattice)
     0.000000000  0.000000000  0.000000000

  ion indices of the primitive-cell ions
   primitive index   ion index
                 1           1

----------------------------------------------------------------------------------------

 
 
 KPOINTS: Automatic kpoint scheme                 

Automatic generation of k-mesh.
 Grid dimensions read from file:
 generate k-points for:    1    1    1

 Generating k-lattice:

  Cartesian coordinates                     Fractional coordinates (reciprocal lattice)
     0.066666667 -0.000000000  0.000000000     1.000000000 -0.000000000  0.000000000
     0.000000000  0.066225166  0.000000000     0.000000000  1.000000000  0.000000000
    -0.000000000 -0.000000000  0.065789474     0.000000000 -0.000000000  1.000000000

  Length of vectors
     0.066666667  0.066225166  0.065789474

  Shift w.r.t. Gamma in fractional coordinates (k-lattice)
     0.000000000  0.000000000  0.000000000

 
 Subroutine IBZKPT returns following result:
 ===========================================
 
 Found      1 irreducible k-points:
 
 Following reciprocal coordinates:
            Coordinates               Weight
  0.000000  0.000000  0.000000      1.000000
 
 Following cartesian coordinates:
            Coordinates               Weight
  0.000000  0.000000  0.000000      1.000000
 


--------------------------------------------------------------------------------------------------------




 Dimension of arrays:
   k-points           NKPTS =      1   k-points in BZ     NKDIM =      1   number of bands    NBANDS=      8
   number of dos      NEDOS =    301   number of ions     NIONS =      1
   non local maximal  LDIM  =      4   non local SUM 2l+1 LMDIM =      8
   total plane-waves  NPLWV = ******
   max r-space proj   IRMAX =      1   max aug-charges    IRDMAX=  12164
   dimension x,y,z NGX =   112 NGY =  112 NGZ =  120
   dimension x,y,z NGXF=   224 NGYF=  224 NGZF=  240
   support grid    NGXF=   224 NGYF=  224 NGZF=  240
   ions per type =               1
   NGX,Y,Z   is equivalent  to a cutoff of  12.41, 12.33, 13.12 a.u.
   NGXF,Y,Z  is equivalent  to a cutoff of  24.83, 24.66, 26.25 a.u.

 SYSTEM =  Na_atom_ispin2                          
 POSCAR =  Na1                                     

 Startparameter for this run:
   NWRITE =      2    write-flag & timer
   PREC   = accura    normal or accurate (medium, high low for compatibility)
   ISTART =      0    job   : 0-new  1-cont  2-samecut
   ICHARG =      2    charge: 1-file 2-atom 10-const
   ISPIN  =      2    spin polarized calculation?
   LNONCOLLINEAR =      F non collinear calculations
   LSORBIT =      F    spin-orbit coupling
   INIWAV =      1    electr: 0-lowe 1-rand  2-diag
   LASPH  =      T    aspherical Exc in radial PAW
 Electronic Relaxation 1
   ENCUT  =  520.0 eV  38.22 Ry    6.18 a.u.  27.89 28.08 28.26*2*pi/ulx,y,z
   ENINI  =  520.0     initial cutoff
   ENAUG  =  368.1 eV  augmentation charge cutoff
   NELM   =    400;   NELMIN=  2; NELMDL= -5     # of ELM steps 
   EDIFF  = 0.1E-04   stopping-criterion for ELM
   LREAL  =      F    real-space projection
   NLSPLINE    = F    spline interpolate recip. space projectors
   LCOMPAT=      F    compatible to vasp.4.4
   GGA_COMPAT  = F    GGA compatible to vasp.4.4-vasp.4.6
   LMAXPAW     = -100 max onsite density
   LMAXMIX     =    6 max onsite mixed and CHGCAR
   VOSKOWN=      0    Vosko Wilk Nusair interpolation
   ROPT   =    0.00000
 Ionic relaxation
   EDIFFG = 0.1E-03   stopping-criterion for IOM
   NSW    =      0    number of steps for IOM
   NBLOCK =      1;   KBLOCK =      1    inner block; outer block 
   IBRION =     -1    ionic relax: 0-MD 1-quasi-New 2-CG
   NFREE  =      0    steps in history (QN), initial steepest desc. (CG)
   ISIF   =      2    stress and relaxation
   IWAVPR =     10    prediction:  0-non 1-charg 2-wave 3-comb
   ISYM   =      0    0-nonsym 1-usesym 2-fastsym
   LCORR  =      T    Harris-Foulkes like correction to forces

   POTIM  = 0.5000    time-step for ionic-motion
   TEIN   =    0.0    initial temperature
   TEBEG  =    0.0;   TEEND  =   0.0 temperature during run
   SMASS  =  -3.00    Nose mass-parameter (am)
   estimated Nose-frequenzy (Omega)   =  0.10E-29 period in steps = 0.13E+47 mass=  -0.514E-26a.u.
   SCALEE = 1.0000    scale energy and forces
   NPACO  =    256;   APACO  = 10.0  distance and # of slots for P.C.
   PSTRESS=    0.0 pullay stress

  Mass of Ions in am
   POMASS =  22.99
  Ionic Valenz
   ZVAL   =   7.00
  Atomic Wigner-Seitz radii
   RWIGS  =  -1.00
  virtual crystal weights 
   VCA    =   1.00
   NELECT =       7.0000    total number of electrons
   NUPDOWN=      -1.0000    fix difference up-down

 DOS related values:
   EMIN   =  10.00;   EMAX   =-10.00  energy-range for DOS
   EFERMI =   0.00;   METHOD = MIDGAP      
   ISMEAR =     0;   SIGMA  =   0.05  broadening in eV -4-tet -1-fermi 0-gaus

 Electronic relaxation 2 (details)
   IALGO  =     38    algorithm
   LDIAG  =      T    sub-space diagonalisation (order eigenvalues)
   LSUBROT=      F    optimize rotation matrix (better conditioning)
   TURBO    =      0    0=normal 1=particle mesh
   IRESTART =      0    0=no restart 2=restart with 2 vectors
   NREBOOT  =      0    no. of reboots
   NMIN     =      0    reboot dimension
   EREF     =   0.00    reference energy to select bands
   IMIX   =      4    mixing-type and parameters
     AMIX     =   0.40;   BMIX     =  1.00
     AMIX_MAG =   1.60;   BMIX_MAG =  1.00
     AMIN     =   0.10
     WC   =   100.;   INIMIX=   1;  MIXPRE=   1;  MAXMIX= -45

 Intra band minimization:
   WEIMIN = 0.0000     energy-eigenvalue tresh-hold
   EBREAK =  0.31E-06  absolut break condition
   DEPER  =   0.30     relativ break condition  

   TIME   =   0.40     timestep for ELM

  volume/ion in A,a.u.               =    3442.80     23233.16
  Fermi-wavevector in a.u.,A,eV,Ry     =   0.207398  0.391925  0.585237  0.043014
  Thomas-Fermi vector in A             =   0.971082
 
 Write flags
   LWAVE        =      F    write WAVECAR
   LDOWNSAMPLE  =      F    k-point downsampling of WAVECAR
   LCHARG       =      F    write CHGCAR
   LVTOT        =      F    write LOCPOT, total local potential
   LVHAR        =      F    write LOCPOT, Hartree potential only
   LELF         =      F    write electronic localiz. function (ELF)
   LORBIT       =      0    0 simple, 1 ext, 2 COOP (PROOUT), +10 PAW based schemes


 Dipole corrections
   LMONO  =      F    monopole corrections only (constant potential shift)
   LDIPOL =      F    correct potential (dipole corrections)
   IDIPOL =      0    1-x, 2-y, 3-z, 4-all directions 
   EPSILON=  1.0000000 bulk dielectric constant

 Exchange correlation treatment:
   GGA     =    PE    GGA type
   LEXCH   =     8    internal setting for exchange type
   LIBXC   =     F    Libxc                    
   VOSKOWN =     0    Vosko Wilk Nusair interpolation
   LHFCALC =     F    Hartree Fock is set to
   LHFONE  =     F    Hartree Fock one center treatment
   AEXX    =    0.0000 exact exchange contribution

 Linear response parameters
   LEPSILON=     F    determine dielectric tensor
   LRPA    =     F    only Hartree local field effects (RPA)
   LNABLA  =     F    use nabla operator in PAW spheres
   LVEL    =     F    velocity operator in full k-point grid
   CSHIFT  =0.1000    complex shift for real part using Kramers Kronig
   OMEGAMAX=  -1.0    maximum frequency
   DEG_THRESHOLD= 0.2000000E-02 threshold for treating states as degnerate
   RTIME   =   -0.100 relaxation time in fs
  (WPLASMAI=    0.000 imaginary part of plasma frequency in eV, 0.658/RTIME)
   DFIELD  = 0.0000000 0.0000000 0.0000000 field for delta impulse in time
 
  Optional k-point grid parameters
   LKPOINTS_OPT  =     F    use optional k-point grid
   KPOINTS_OPT_MODE=     1    mode for optional k-point grid
 
 Orbital magnetization related:
   ORBITALMAG=     F  switch on orbital magnetization
   LCHIMAG   =     F  perturbation theory with respect to B field
   DQ        =  0.001000  dq finite difference perturbation B field
   LLRAUG    =     F  two centre corrections for induced B field
   LBONE     =     F  B-component reconstruction in AE one-centre
   LVGVCALC  =     T  calculate vGv susceptibility
   LVGVAPPL  =     F  apply vGv susceptibility instead of pGv for G=0

 Random number generation:
   RANDOM_GENERATOR = DEFAULT
   PCG_SEED         = not used


--------------------------------------------------------------------------------------------------------


 Static calculation
 charge density and potential will be updated during run
 spin polarized calculation
 Variant of blocked Davidson
 Davidson routine will perform the subspace rotation
 perform sub-space diagonalisation
    after iterative eigenvector-optimisation
 modified Broyden-mixing scheme, WC =      100.0
 initial mixing is a Kerker type mixing with AMIX =  0.4000 and BMIX =      1.0000
 Hartree-type preconditioning will be used
 using additional bands            4
 reciprocal scheme for non local part
 use partial core corrections
 calculate Harris-corrections to forces 
   (improved forces if not selfconsistent)
 use gradient corrections 
 use of overlap-Matrix (Vanderbilt PP)
 Gauss-broadening in eV      SIGMA  =   0.05


--------------------------------------------------------------------------------------------------------


  energy-cutoff  :      520.00
  volume of cell :     3442.80
      direct lattice vectors                 reciprocal lattice vectors
    15.000000000  0.000000000  0.000000000     0.066666667 -0.000000000  0.000000000
     0.000000000 15.100000000  0.000000000     0.000000000  0.066225166  0.000000000
     0.000000000  0.000000000 15.200000000    -0.000000000 -0.000000000  0.065789474

  length of vectors
    15.000000000 15.100000000 15.200000000     0.066666667  0.066225166  0.065789474


 
 k-points in units of 2pi/SCALE and weight: Automatic kpoint scheme                 
   0.00000000  0.00000000  0.00000000       1.000
 
 k-points in reciprocal lattice and weights: Automatic kpoint scheme                 
   0.00000000  0.00000000  0.00000000       1.000
 
 position of ions in fractional coordinates (direct lattice) 
   0.00000000  0.00000000  0.00000000
 
 position of ions in cartesian coordinates  (Angst):
   0.00000000  0.00000000  0.00000000
 


--------------------------------------------------------------------------------------------------------


 use parallel FFT for orbitals z direction half grid
 k-point   1 :   0.0000 0.0000 0.0000  plane waves:   46338

 maximum and minimum number of plane-waves per node :      1457     1434

 maximum number of plane-waves:     46338
 maximum index in each direction: 
   IXMAX=   27   IYMAX=   28   IZMAX=   28
   IXMIN=  -27   IYMIN=  -28   IZMIN=    0


 parallel 3D FFT for wavefunctions:
    minimum data exchange during FFTs selected (reduces bandwidth)
 parallel 3D FFT for charge:
    minimum data exchange during FFTs selected (reduces bandwidth)


 total amount of memory used by VASP MPI-rank0    58360. kBytes
=======================================================================

   base      :      30000. kBytes
   nonl-proj :        116. kBytes
   fftplans  :       8156. kBytes
   grid      :      19898. kBytes
   one-center:          3. kBytes
   wavefun   :        187. kBytes
 
     INWAV:  cpu time      0.0000: real time      0.0000
 Broyden mixing: mesh for mixing (old mesh)
   NGX = 55   NGY = 57   NGZ = 57
  (NGX  =224   NGY  =224   NGZ  =240)
  gives a total of 178695 points

 initial charge density was supplied:
 charge density of overlapping atoms calculated
 number of electron       7.0000000 magnetization       1.0000000
 keeping initial charge density in first step


--------------------------------------------------------------------------------------------------------


 Maximum index for augmentation-charges          631 (set IRDMAX)


--------------------------------------------------------------------------------------------------------


 First call to EWALD:  gamma=   0.117
 Maximum number of real-space cells 3x 3x 3
 Maximum number of reciprocal cells 3x 3x 3

    FEWALD:  cpu time      0.0011: real time      0.0011


--------------------------------------- Ionic step        1  -------------------------------------------




--------------------------------------- Iteration      1(   1)  ---------------------------------------


    POTLOK:  cpu time      0.3180: real time      0.3200
    SETDIJ:  cpu time      0.2003: real time      0.2013
     EDDAV:  cpu time      0.0533: real time      0.0538
       DOS:  cpu time      0.0005: real time      0.0005
    --------------------------------------------
      LOOP:  cpu time      0.5722: real time      0.5756

 eigenvalue-minimisations  :    48
 total energy-change (2. order) : 0.8957525E+02  (-0.1617696E+03)
 number of electron       7.0000000 magnetization       1.0000000
 augmentation part        7.0000000 magnetization       1.0000000

 Free energy of the ion-electron system (eV)
  ---------------------------------------------------
  alpha Z        PSCENC =         0.08856175
  Ewald energy   TEWEN  =       -66.28833240
  -Hartree energ DENC   =      -460.83103679
  -exchange      EXHF   =         0.00000000
  -V(xc)+E(xc)   XCENC  =        24.11657387
  PAW double counting   =       502.19532895     -590.71360055
  entropy T*S    EENTRO =        -0.00011795
  eigenvalues    EBANDS =       -85.03413178
  atomic energy  EATOM  =       766.04200436
  Solvation  Ediel_sol  =         0.00000000
  ---------------------------------------------------
  free energy    TOTEN  =        89.57524945 eV

  energy without entropy =       89.57536740  energy(sigma->0) =       89.57530843


--------------------------------------------------------------------------------------------------------




--------------------------------------- Iteration      1(   2)  ---------------------------------------


     EDDAV:  cpu time      0.0424: real time      0.0433
       DOS:  cpu time      0.0002: real time      0.0002
    --------------------------------------------
      LOOP:  cpu time      0.0426: real time      0.0435

 eigenvalue-minimisations  :    40
 total energy-change (2. order) :-0.8016853E+02  (-0.7996539E+02)
 number of electron       7.0000000 magnetization       1.0000000
 augmentation part        7.0000000 magnetization       1.0000000

 Free energy of the ion-electron system (eV)
  ---------------------------------------------------
  alpha Z        PSCENC =         0.08856175
  Ewald energy   TEWEN  =       -66.28833240
  -Hartree energ DENC   =      -460.83103679
  -exchange      EXHF   =         0.00000000
  -V(xc)+E(xc)   XCENC  =        24.11657387
  PAW double counting   =       502.19532895     -590.71360055
  entropy T*S    EENTRO =        -0.00071967
  eigenvalues    EBANDS =      -165.20205601
  atomic energy  EATOM  =       766.04200436
  Solvation  Ediel_sol  =         0.00000000
  ---------------------------------------------------
  free energy    TOTEN  =         9.40672351 eV

  energy without entropy =        9.40744318  energy(sigma->0) =        9.40708334


--------------------------------------------------------------------------------------------------------




--------------------------------------- Iteration      1(   3)  ---------------------------------------


     EDDAV:  cpu time      0.0852: real time      0.0857
       DOS:  cpu time      0.0002: real time      0.0002
    --------------------------------------------
      LOOP:  cpu time      0.0854: real time      0.0860

 eigenvalue-minimisations  :    48
 total energy-change (2. order) :-0.8919931E+01  (-0.8919930E+01)
 number of electron       7.0000000 magnetization       1.0000000
 augmentation part        7.0000000 magnetization       1.0000000

 Free energy of the ion-electron system (eV)
  ---------------------------------------------------
  alpha Z        PSCENC =         0.08856175
  Ewald energy   TEWEN  =       -66.28833240
  -Hartree energ DENC   =      -460.83103679
  -exchange      EXHF   =         0.00000000
  -V(xc)+E(xc)   XCENC  =        24.11657387
  PAW double counting   =       502.19532895     -590.71360055
  entropy T*S    EENTRO =        -0.00061005
  eigenvalues    EBANDS =      -174.12209689
  atomic energy  EATOM  =       766.04200436
  Solvation  Ediel_sol  =         0.00000000
  ---------------------------------------------------
  free energy    TOTEN  =         0.48679224 eV

  energy without entropy =        0.48740229  energy(sigma->0) =        0.48709727


--------------------------------------------------------------------------------------------------------




--------------------------------------- Iteration      1(   4)  ---------------------------------------


     EDDAV:  cpu time      0.0367: real time      0.0370
       DOS:  cpu time      0.0002: real time      0.0002
    --------------------------------------------
      LOOP:  cpu time      0.0368: real time      0.0372

 eigenvalue-minimisations  :    32
 total energy-change (2. order) :-0.2239948E+00  (-0.2239948E+00)
 number of electron       7.0000000 magnetization       1.0000000
 augmentation part        7.0000000 magnetization       1.0000000

 Free energy of the ion-electron system (eV)
  ---------------------------------------------------
  alpha Z        PSCENC =         0.08856175
  Ewald energy   TEWEN  =       -66.28833240
  -Hartree energ DENC   =      -460.83103679
  -exchange      EXHF   =         0.00000000
  -V(xc)+E(xc)   XCENC  =        24.11657387
  PAW double counting   =       502.19532895     -590.71360055
  entropy T*S    EENTRO =        -0.00060841
  eigenvalues    EBANDS =      -174.34609335
  atomic energy  EATOM  =       766.04200436
  Solvation  Ediel_sol  =         0.00000000
  ---------------------------------------------------
  free energy    TOTEN  =         0.26279742 eV

  energy without entropy =        0.26340583  energy(sigma->0) =        0.26310163


--------------------------------------------------------------------------------------------------------




--------------------------------------- Iteration      1(   5)  ---------------------------------------


     EDDAV:  cpu time      0.0360: real time      0.0363
       DOS:  cpu time      0.0002: real time      0.0002
    CHARGE:  cpu time      0.0242: real time      0.0243
    MIXING:  cpu time      0.0039: real time      0.0039
    --------------------------------------------
      LOOP:  cpu time      0.0642: real time      0.0647

 eigenvalue-minimisations  :    32
 total energy-change (2. order) :-0.4272938E-02  (-0.4272938E-02)
 number of electron       6.9999987 magnetization       0.9986914
 augmentation part        4.4626968 magnetization       0.0336917

 Broyden mixing:
  rms(total) = 0.72844E+00    rms(broyden)= 0.72844E+00
  rms(prec ) = 0.72844E+00
  weight for this iteration     100.00

 Free energy of the ion-electron system (eV)
  ---------------------------------------------------
  alpha Z        PSCENC =         0.08856175
  Ewald energy   TEWEN  =       -66.28833240
  -Hartree energ DENC   =      -460.83103679
  -exchange      EXHF   =         0.00000000
  -V(xc)+E(xc)   XCENC  =        24.11657387
  PAW double counting   =       502.19532895     -590.71360055
  entropy T*S    EENTRO =        -0.00060837
  eigenvalues    EBANDS =      -174.35036633
  atomic energy  EATOM  =       766.04200436
  Solvation  Ediel_sol  =         0.00000000
  ---------------------------------------------------
  free energy    TOTEN  =         0.25852448 eV

  energy without entropy =        0.25913285  energy(sigma->0) =        0.25882867


--------------------------------------------------------------------------------------------------------




--------------------------------------- Iteration      1(   6)  ---------------------------------------


    POTLOK:  cpu time      0.3247: real time      0.3267
    SETDIJ:  cpu time      0.2000: real time      0.2009
     EDDAV:  cpu time      0.0380: real time      0.0383
       DOS:  cpu time      0.0002: real time      0.0002
    CHARGE:  cpu time      0.0216: real time      0.0218
    MIXING:  cpu time      0.0040: real time      0.0040
    --------------------------------------------
      LOOP:  cpu time      0.5885: real time      0.5919

 eigenvalue-minimisations  :    32
 total energy-change (2. order) : 0.3093112E+01  (-0.3672447E+00)
 number of electron       6.9999987 magnetization       0.9989201
 augmentation part        4.5037509 magnetization      -0.0610750

 Broyden mixing:
  rms(total) = 0.25014E+00    rms(broyden)= 0.25014E+00
  rms(prec ) = 0.25121E+00
  weight for this iteration     100.00

 eigenvalues of (default mixing * dielectric matrix)
  average eigenvalue GAMMA=   0.7467
  0.7467

 Free energy of the ion-electron system (eV)
  ---------------------------------------------------
  alpha Z        PSCENC =         0.08856175
  Ewald energy   TEWEN  =       -66.28833240
  -Hartree energ DENC   =      -460.87518675
  -exchange      EXHF   =         0.00000000
  -V(xc)+E(xc)   XCENC  =        27.03974969
  PAW double counting   =       501.73537005     -590.29114087
  entropy T*S    EENTRO =        -0.00000000
  eigenvalues    EBANDS =      -174.09938917
  atomic energy  EATOM  =       766.04200436
  Solvation  Ediel_sol  =         0.00000000
  ---------------------------------------------------
  free energy    TOTEN  =         3.35163664 eV

  energy without entropy =        3.35163664  energy(sigma->0) =        3.35163664


--------------------------------------------------------------------------------------------------------




--------------------------------------- Iteration      1(   7)  ---------------------------------------


    POTLOK:  cpu time      0.3483: real time      0.3503
    SETDIJ:  cpu time      0.1999: real time      0.2008
     EDDAV:  cpu time      0.0447: real time      0.0451
       DOS:  cpu time      0.0002: real time      0.0002
    CHARGE:  cpu time      0.0231: real time      0.0233
    MIXING:  cpu time      0.0039: real time      0.0040
    --------------------------------------------
      LOOP:  cpu time      0.6200: real time      0.6236

 eigenvalue-minimisations  :    40
 total energy-change (2. order) :-0.2575369E+01  (-0.1096621E+00)
 number of electron       6.9999987 magnetization       0.9991330
 augmentation part        4.4631059 magnetization      -0.0163720

 Broyden mixing:
  rms(total) = 0.24418E-01    rms(broyden)= 0.24416E-01
  rms(prec ) = 0.25441E-01
  weight for this iteration     100.00

 eigenvalues of (default mixing * dielectric matrix)
  average eigenvalue GAMMA=   0.8160
  0.8160  0.8160

 Free energy of the ion-electron system (eV)
  ---------------------------------------------------
  alpha Z        PSCENC =         0.08856175
  Ewald energy   TEWEN  =       -66.28833240
  -Hartree energ DENC   =      -461.93333497
  -exchange      EXHF   =         0.00000000
  -V(xc)+E(xc)   XCENC  =        25.02930253
  PAW double counting   =       504.47302768     -593.61176611
  entropy T*S    EENTRO =        -0.00000000
  eigenvalues    EBANDS =      -173.02319565
  atomic energy  EATOM  =       766.04200436
  Solvation  Ediel_sol  =         0.00000000
  ---------------------------------------------------
  free energy    TOTEN  =         0.77626718 eV

  energy without entropy =        0.77626718  energy(sigma->0) =        0.77626718


--------------------------------------------------------------------------------------------------------




--------------------------------------- Iteration      1(   8)  ---------------------------------------


    POTLOK:  cpu time      0.3269: real time      0.3291
    SETDIJ:  cpu time      0.1999: real time      0.2011
     EDDAV:  cpu time      0.0387: real time      0.0390
       DOS:  cpu time      0.0002: real time      0.0002
    CHARGE:  cpu time      0.0220: real time      0.0222
    MIXING:  cpu time      0.0042: real time      0.0042
    --------------------------------------------
      LOOP:  cpu time      0.5920: real time      0.5958

 eigenvalue-minimisations  :    32
 total energy-change (2. order) :-0.5811101E+00  (-0.4272453E-02)
 number of electron       6.9999987 magnetization       0.9993558
 augmentation part        4.4656792 magnetization      -0.0125956

 Broyden mixing:
  rms(total) = 0.95069E-02    rms(broyden)= 0.95065E-02
  rms(prec ) = 0.10474E-01
  weight for this iteration     100.00

 eigenvalues of (default mixing * dielectric matrix)
  average eigenvalue GAMMA=   0.8387
  0.8996  0.8996  0.7170

 Free energy of the ion-electron system (eV)
  ---------------------------------------------------
  alpha Z        PSCENC =         0.08856175
  Ewald energy   TEWEN  =       -66.28833240
  -Hartree energ DENC   =      -461.83523779
  -exchange      EXHF   =         0.00000000
  -V(xc)+E(xc)   XCENC  =        24.47714354
  PAW double counting   =       504.19308014     -593.11430549
  entropy T*S    EENTRO =        -0.00000000
  eigenvalues    EBANDS =      -173.36775707
  atomic energy  EATOM  =       766.04200436
  Solvation  Ediel_sol  =         0.00000000
  ---------------------------------------------------
  free energy    TOTEN  =         0.19515703 eV

  energy without entropy =        0.19515703  energy(sigma->0) =        0.19515703


--------------------------------------------------------------------------------------------------------




--------------------------------------- Iteration      1(   9)  ---------------------------------------


    POTLOK:  cpu time      0.3276: real time      0.3298
    SETDIJ:  cpu time      0.2002: real time      0.2011
     EDDAV:  cpu time      0.0403: real time      0.0405
       DOS:  cpu time      0.0002: real time      0.0002
    CHARGE:  cpu time      0.0258: real time      0.0259
    MIXING:  cpu time      0.0053: real time      0.0053
    --------------------------------------------
      LOOP:  cpu time      0.5993: real time      0.6028

 eigenvalue-minimisations  :    32
 total energy-change (2. order) :-0.1879643E+00  (-0.1791533E-02)
 number of electron       6.9999987 magnetization       0.9996353
 augmentation part        4.4643982 magnetization      -0.0100980

 Broyden mixing:
  rms(total) = 0.64636E-02    rms(broyden)= 0.64636E-02
  rms(prec ) = 0.71916E-02
  weight for this iteration     100.00

 eigenvalues of (default mixing * dielectric matrix)
  average eigenvalue GAMMA=   1.0485
  1.8025  0.9641  0.7942  0.6331

 Free energy of the ion-electron system (eV)
  ---------------------------------------------------
  alpha Z        PSCENC =         0.08856175
  Ewald energy   TEWEN  =       -66.28833240
  -Hartree energ DENC   =      -461.79364303
  -exchange      EXHF   =         0.00000000
  -V(xc)+E(xc)   XCENC  =        24.30809437
  PAW double counting   =       504.03309686     -592.84048800
  entropy T*S    EENTRO =        -0.00000000
  eigenvalues    EBANDS =      -173.54210116
  atomic energy  EATOM  =       766.04200436
  Solvation  Ediel_sol  =         0.00000000
  ---------------------------------------------------
  free energy    TOTEN  =         0.00719274 eV

  energy without entropy =        0.00719274  energy(sigma->0) =        0.00719274


--------------------------------------------------------------------------------------------------------




--------------------------------------- Iteration      1(  10)  ---------------------------------------


    POTLOK:  cpu time      0.3358: real time      0.3378
    SETDIJ:  cpu time      0.1995: real time      0.2004
     EDDAV:  cpu time      0.0521: real time      0.0525
       DOS:  cpu time      0.0002: real time      0.0002
    CHARGE:  cpu time      0.0216: real time      0.0217
    MIXING:  cpu time      0.0044: real time      0.0044
    --------------------------------------------
      LOOP:  cpu time      0.6135: real time      0.6170

 eigenvalue-minimisations  :    48
 total energy-change (2. order) :-0.1563102E+00  (-0.2482479E-02)
 number of electron       6.9999987 magnetization       0.9998129
 augmentation part        4.4643805 magnetization      -0.0067224

 Broyden mixing:
  rms(total) = 0.28754E-02    rms(broyden)= 0.28747E-02
  rms(prec ) = 0.33512E-02
  weight for this iteration     100.00

 eigenvalues of (default mixing * dielectric matrix)
  average eigenvalue GAMMA=   1.1223
  2.2539  1.1109  0.8034  0.8034  0.6401

 Free energy of the ion-electron system (eV)
  ---------------------------------------------------
  alpha Z        PSCENC =         0.08856175
  Ewald energy   TEWEN  =       -66.28833240
  -Hartree energ DENC   =      -461.68708399
  -exchange      EXHF   =         0.00000000
  -V(xc)+E(xc)   XCENC  =        24.16125522
  PAW double counting   =       503.59427693     -592.26225144
  entropy T*S    EENTRO =        -0.00000000
  eigenvalues    EBANDS =      -173.79754789
  atomic energy  EATOM  =       766.04200436
  Solvation  Ediel_sol  =         0.00000000
  ---------------------------------------------------
  free energy    TOTEN  =        -0.14911746 eV

  energy without entropy =       -0.14911746  energy(sigma->0) =       -0.14911746


--------------------------------------------------------------------------------------------------------




--------------------------------------- Iteration      1(  11)  ---------------------------------------


    POTLOK:  cpu time      0.3871: real time      0.3894
    SETDIJ:  cpu time      0.2000: real time      0.2009
     EDDAV:  cpu time      0.0388: real time      0.0391
       DOS:  cpu time      0.0002: real time      0.0002
    CHARGE:  cpu time      0.0220: real time      0.0221
    MIXING:  cpu time      0.0046: real time      0.0047
    --------------------------------------------
      LOOP:  cpu time      0.6526: real time      0.6563

 eigenvalue-minimisations  :    32
 total energy-change (2. order) :-0.5799165E-01  (-0.1028872E-02)
 number of electron       6.9999987 magnetization       0.9998904
 augmentation part        4.4645835 magnetization      -0.0055691

 Broyden mixing:
  rms(total) = 0.13517E-02    rms(broyden)= 0.13516E-02
  rms(prec ) = 0.16920E-02
  weight for this iteration     100.00

 eigenvalues of (default mixing * dielectric matrix)
  average eigenvalue GAMMA=   1.1762
  2.7036  1.4338  0.8339  0.8339  0.6260  0.6260

 Free energy of the ion-electron system (eV)
  ---------------------------------------------------
  alpha Z        PSCENC =         0.08856175
  Ewald energy   TEWEN  =       -66.28833240
  -Hartree energ DENC   =      -461.60243973
  -exchange      EXHF   =         0.00000000
  -V(xc)+E(xc)   XCENC  =        24.10504054
  PAW double counting   =       503.18726585     -591.79756088
  entropy T*S    EENTRO =        -0.00000000
  eigenvalues    EBANDS =      -173.94164860
  atomic energy  EATOM  =       766.04200436
  Solvation  Ediel_sol  =         0.00000000
  ---------------------------------------------------
  free energy    TOTEN  =        -0.20710911 eV

  energy without entropy =       -0.20710911  energy(sigma->0) =       -0.20710911


--------------------------------------------------------------------------------------------------------




--------------------------------------- Iteration      1(  12)  ---------------------------------------


    POTLOK:  cpu time      0.3189: real time      0.3209
    SETDIJ:  cpu time      0.1996: real time      0.2005
     EDDAV:  cpu time      0.0513: real time      0.0517
       DOS:  cpu time      0.0002: real time      0.0002
    CHARGE:  cpu time      0.0222: real time      0.0224
    MIXING:  cpu time      0.0045: real time      0.0045
    --------------------------------------------
      LOOP:  cpu time      0.5967: real time      0.6002

 eigenvalue-minimisations  :    48
 total energy-change (2. order) :-0.8354171E-02  (-0.1029143E-03)
 number of electron       6.9999987 magnetization       0.9999759
 augmentation part        4.4644890 magnetization      -0.0050747

 Broyden mixing:
  rms(total) = 0.67917E-03    rms(broyden)= 0.67901E-03
  rms(prec ) = 0.10034E-02
  weight for this iteration     100.00

 eigenvalues of (default mixing * dielectric matrix)
  average eigenvalue GAMMA=   1.2962
  3.1829  1.8347  1.1633  0.8217  0.8217  0.6246  0.6246

 Free energy of the ion-electron system (eV)
  ---------------------------------------------------
  alpha Z        PSCENC =         0.08856175
  Ewald energy   TEWEN  =       -66.28833240
  -Hartree energ DENC   =      -461.56959366
  -exchange      EXHF   =         0.00000000
  -V(xc)+E(xc)   XCENC  =        24.09615451
  PAW double counting   =       502.95749195     -591.56316350
  entropy T*S    EENTRO =        -0.00000000
  eigenvalues    EBANDS =      -173.97858629
  atomic energy  EATOM  =       766.04200436
  Solvation  Ediel_sol  =         0.00000000
  ---------------------------------------------------
  free energy    TOTEN  =        -0.21546328 eV

  energy without entropy =       -0.21546328  energy(sigma->0) =       -0.21546328


--------------------------------------------------------------------------------------------------------




--------------------------------------- Iteration      1(  13)  ---------------------------------------


    POTLOK:  cpu time      0.3299: real time      0.3320
    SETDIJ:  cpu time      0.2013: real time      0.2023
     EDDAV:  cpu time      0.0391: real time      0.0396
       DOS:  cpu time      0.0002: real time      0.0002
    CHARGE:  cpu time      0.0225: real time      0.0226
    MIXING:  cpu time      0.0047: real time      0.0047
    --------------------------------------------
      LOOP:  cpu time      0.5978: real time      0.6015

 eigenvalue-minimisations  :    32
 total energy-change (2. order) :-0.6424437E-02  (-0.5728304E-04)
 number of electron       6.9999987 magnetization       0.9999963
 augmentation part        4.4644503 magnetization      -0.0048620

 Broyden mixing:
  rms(total) = 0.31740E-03    rms(broyden)= 0.31737E-03
  rms(prec ) = 0.57811E-03
  weight for this iteration     100.00

 eigenvalues of (default mixing * dielectric matrix)
  average eigenvalue GAMMA=   1.3614
  3.4333  2.2899  1.3458  0.9330  0.8238  0.8238  0.6209  0.6209

 Free energy of the ion-electron system (eV)
  ---------------------------------------------------
  alpha Z        PSCENC =         0.08856175
  Ewald energy   TEWEN  =       -66.28833240
  -Hartree energ DENC   =      -461.54631004
  -exchange      EXHF   =         0.00000000
  -V(xc)+E(xc)   XCENC  =        24.08953302
  PAW double counting   =       502.68123550     -591.29522306
  entropy T*S    EENTRO =        -0.00000000
  eigenvalues    EBANDS =      -173.99335684
  atomic energy  EATOM  =       766.04200436
  Solvation  Ediel_sol  =         0.00000000
  ---------------------------------------------------
  free energy    TOTEN  =        -0.22188772 eV

  energy without entropy =       -0.22188772  energy(sigma->0) =       -0.22188772


--------------------------------------------------------------------------------------------------------




--------------------------------------- Iteration      1(  14)  ---------------------------------------


    POTLOK:  cpu time      0.3219: real time      0.3241
    SETDIJ:  cpu time      0.1999: real time      0.2008
     EDDAV:  cpu time      0.0381: real time      0.0384
       DOS:  cpu time      0.0002: real time      0.0002
    CHARGE:  cpu time      0.0219: real time      0.0221
    MIXING:  cpu time      0.0050: real time      0.0050
    --------------------------------------------
      LOOP:  cpu time      0.5870: real time      0.5906

 eigenvalue-minimisations  :    32
 total energy-change (2. order) :-0.2300851E-02  (-0.4478854E-04)
 number of electron       6.9999987 magnetization       1.0000186
 augmentation part        4.4642538 magnetization      -0.0047319

 Broyden mixing:
  rms(total) = 0.24894E-03    rms(broyden)= 0.24892E-03
  rms(prec ) = 0.45746E-03
  weight for this iteration     100.00

 eigenvalues of (default mixing * dielectric matrix)
  average eigenvalue GAMMA=   1.3598
  4.0196  2.2019  1.3916  1.0545  0.8286  0.8286  0.6703  0.6308  0.6119

 Free energy of the ion-electron system (eV)
  ---------------------------------------------------
  alpha Z        PSCENC =         0.08856175
  Ewald energy   TEWEN  =       -66.28833240
  -Hartree energ DENC   =      -461.55222125
  -exchange      EXHF   =         0.00000000
  -V(xc)+E(xc)   XCENC  =        24.08834681
  PAW double counting   =       502.62727005     -591.24843621
  entropy T*S    EENTRO =        -0.00000000
  eigenvalues    EBANDS =      -173.98138168
  atomic energy  EATOM  =       766.04200436
  Solvation  Ediel_sol  =         0.00000000
  ---------------------------------------------------
  free energy    TOTEN  =        -0.22418857 eV

  energy without entropy =       -0.22418857  energy(sigma->0) =       -0.22418857


--------------------------------------------------------------------------------------------------------




--------------------------------------- Iteration      1(  15)  ---------------------------------------


    POTLOK:  cpu time      0.3185: real time      0.3207
    SETDIJ:  cpu time      0.1999: real time      0.2008
     EDDAV:  cpu time      0.0389: real time      0.0392
       DOS:  cpu time      0.0002: real time      0.0002
    CHARGE:  cpu time      0.0219: real time      0.0220
    MIXING:  cpu time      0.0052: real time      0.0053
    --------------------------------------------
      LOOP:  cpu time      0.5846: real time      0.5882

 eigenvalue-minimisations  :    32
 total energy-change (2. order) :-0.2596290E-02  (-0.1057077E-04)
 number of electron       6.9999987 magnetization       1.0000133
 augmentation part        4.4643303 magnetization      -0.0046547

 Broyden mixing:
  rms(total) = 0.19286E-03    rms(broyden)= 0.19284E-03
  rms(prec ) = 0.34414E-03
  weight for this iteration     100.00

 eigenvalues of (default mixing * dielectric matrix)
  average eigenvalue GAMMA=   1.4343
  4.2101  2.4350  1.8350  1.2760  1.0355  0.8288  0.8288  0.6411  0.6411  0.6114

 Free energy of the ion-electron system (eV)
  ---------------------------------------------------
  alpha Z        PSCENC =         0.08856175
  Ewald energy   TEWEN  =       -66.28833240
  -Hartree energ DENC   =      -461.54708872
  -exchange      EXHF   =         0.00000000
  -V(xc)+E(xc)   XCENC  =        24.08559246
  PAW double counting   =       502.56974629     -591.18536220
  entropy T*S    EENTRO =        -0.00000000
  eigenvalues    EBANDS =      -173.99190639
  atomic energy  EATOM  =       766.04200436
  Solvation  Ediel_sol  =         0.00000000
  ---------------------------------------------------
  free energy    TOTEN  =        -0.22678486 eV

  energy without entropy =       -0.22678486  energy(sigma->0) =       -0.22678486


--------------------------------------------------------------------------------------------------------




--------------------------------------- Iteration      1(  16)  ---------------------------------------


    POTLOK:  cpu time      0.3338: real time      0.3357
    SETDIJ:  cpu time      0.1998: real time      0.2007
     EDDAV:  cpu time      0.0384: real time      0.0386
       DOS:  cpu time      0.0002: real time      0.0002
    CHARGE:  cpu time      0.0217: real time      0.0218
    MIXING:  cpu time      0.0054: real time      0.0054
    --------------------------------------------
      LOOP:  cpu time      0.5991: real time      0.6025

 eigenvalue-minimisations  :    32
 total energy-change (2. order) :-0.9320163E-03  (-0.1866318E-04)
 number of electron       6.9999987 magnetization       1.0000081
 augmentation part        4.4642432 magnetization      -0.0046309

 Broyden mixing:
  rms(total) = 0.12421E-03    rms(broyden)= 0.12420E-03
  rms(prec ) = 0.18156E-03
  weight for this iteration     100.00

 eigenvalues of (default mixing * dielectric matrix)
  average eigenvalue GAMMA=   1.4800
  4.5222  2.8304  2.1580  1.3216  1.1441  0.8305  0.8305  0.8069  0.5813  0.6270
  0.6270

 Free energy of the ion-electron system (eV)
  ---------------------------------------------------
  alpha Z        PSCENC =         0.08856175
  Ewald energy   TEWEN  =       -66.28833240
  -Hartree energ DENC   =      -461.56267106
  -exchange      EXHF   =         0.00000000
  -V(xc)+E(xc)   XCENC  =        24.08583060
  PAW double counting   =       502.58918137     -591.20530695
  entropy T*S    EENTRO =        -0.00000000
  eigenvalues    EBANDS =      -173.97698454
  atomic energy  EATOM  =       766.04200436
  Solvation  Ediel_sol  =         0.00000000
  ---------------------------------------------------
  free energy    TOTEN  =        -0.22771687 eV

  energy without entropy =       -0.22771687  energy(sigma->0) =       -0.22771687


--------------------------------------------------------------------------------------------------------




--------------------------------------- Iteration      1(  17)  ---------------------------------------


    POTLOK:  cpu time      0.3191: real time      0.3214
    SETDIJ:  cpu time      0.1998: real time      0.2007
     EDDAV:  cpu time      0.0381: real time      0.0384
       DOS:  cpu time      0.0002: real time      0.0002
    CHARGE:  cpu time      0.0219: real time      0.0221
    MIXING:  cpu time      0.0055: real time      0.0056
    --------------------------------------------
      LOOP:  cpu time      0.5847: real time      0.5885

 eigenvalue-minimisations  :    32
 total energy-change (2. order) :-0.3158412E-03  (-0.2079076E-05)
 number of electron       6.9999987 magnetization       1.0000044
 augmentation part        4.4642717 magnetization      -0.0046274

 Broyden mixing:
  rms(total) = 0.59918E-04    rms(broyden)= 0.59917E-04
  rms(prec ) = 0.10019E-03
  weight for this iteration     100.00

 eigenvalues of (default mixing * dielectric matrix)
  average eigenvalue GAMMA=   1.6095
  5.5253  3.3386  2.3638  1.5756  1.2771  1.0148  0.8295  0.8295  0.7155  0.6292
  0.6292  0.5860

 Free energy of the ion-electron system (eV)
  ---------------------------------------------------
  alpha Z        PSCENC =         0.08856175
  Ewald energy   TEWEN  =       -66.28833240
  -Hartree energ DENC   =      -461.56465369
  -exchange      EXHF   =         0.00000000
  -V(xc)+E(xc)   XCENC  =        24.08557220
  PAW double counting   =       502.58571973     -591.19948978
  entropy T*S    EENTRO =        -0.00000000
  eigenvalues    EBANDS =      -173.97741487
  atomic energy  EATOM  =       766.04200436
  Solvation  Ediel_sol  =         0.00000000
  ---------------------------------------------------
  free energy    TOTEN  =        -0.22803272 eV

  energy without entropy =       -0.22803272  energy(sigma->0) =       -0.22803272


--------------------------------------------------------------------------------------------------------




--------------------------------------- Iteration      1(  18)  ---------------------------------------


    POTLOK:  cpu time      0.3892: real time      0.3916
    SETDIJ:  cpu time      0.2002: real time      0.2011
     EDDAV:  cpu time      0.0457: real time      0.0461
       DOS:  cpu time      0.0002: real time      0.0002
    CHARGE:  cpu time      0.0221: real time      0.0223
    MIXING:  cpu time      0.0058: real time      0.0058
    --------------------------------------------
      LOOP:  cpu time      0.6632: real time      0.6672

 eigenvalue-minimisations  :    40
 total energy-change (2. order) :-0.4188780E-03  (-0.4946286E-06)
 number of electron       6.9999987 magnetization       1.0000002
 augmentation part        4.4642960 magnetization      -0.0046403

 Broyden mixing:
  rms(total) = 0.60864E-04    rms(broyden)= 0.60863E-04
  rms(prec ) = 0.79144E-04
  weight for this iteration     100.00

 eigenvalues of (default mixing * dielectric matrix)
  average eigenvalue GAMMA=   1.6702
  6.1653  3.8006  2.1011  2.1011  1.3525  1.1321  0.9088  0.8221  0.8221  0.6549
  0.6269  0.6269  0.5981

 Free energy of the ion-electron system (eV)
  ---------------------------------------------------
  alpha Z        PSCENC =         0.08856175
  Ewald energy   TEWEN  =       -66.28833240
  -Hartree energ DENC   =      -461.56430509
  -exchange      EXHF   =         0.00000000
  -V(xc)+E(xc)   XCENC  =        24.08512382
  PAW double counting   =       502.56869903     -591.18168996
  entropy T*S    EENTRO =        -0.00000000
  eigenvalues    EBANDS =      -173.97851310
  atomic energy  EATOM  =       766.04200436
  Solvation  Ediel_sol  =         0.00000000
  ---------------------------------------------------
  free energy    TOTEN  =        -0.22845159 eV

  energy without entropy =       -0.22845159  energy(sigma->0) =       -0.22845159


--------------------------------------------------------------------------------------------------------




--------------------------------------- Iteration      1(  19)  ---------------------------------------


    POTLOK:  cpu time      0.3292: real time      0.3314
    SETDIJ:  cpu time      0.1999: real time      0.2008
     EDDAV:  cpu time      0.0392: real time      0.0395
       DOS:  cpu time      0.0002: real time      0.0002
    CHARGE:  cpu time      0.0236: real time      0.0238
    MIXING:  cpu time      0.0066: real time      0.0067
    --------------------------------------------
      LOOP:  cpu time      0.5988: real time      0.6024

 eigenvalue-minimisations  :    32
 total energy-change (2. order) :-0.3573168E-04  (-0.5687352E-07)
 number of electron       6.9999987 magnetization       0.9999984
 augmentation part        4.4642773 magnetization      -0.0046466

 Broyden mixing:
  rms(total) = 0.25148E-04    rms(broyden)= 0.25148E-04
  rms(prec ) = 0.40477E-04
  weight for this iteration     100.00

 eigenvalues of (default mixing * dielectric matrix)
  average eigenvalue GAMMA=   1.8034
  7.6332  3.9802  2.7170  2.1804  1.4791  1.2465  1.0399  0.8199  0.8199  0.8356
  0.6056  0.6240  0.6330  0.6330

 Free energy of the ion-electron system (eV)
  ---------------------------------------------------
  alpha Z        PSCENC =         0.08856175
  Ewald energy   TEWEN  =       -66.28833240
  -Hartree energ DENC   =      -461.56502786
  -exchange      EXHF   =         0.00000000
  -V(xc)+E(xc)   XCENC  =        24.08516096
  PAW double counting   =       502.56349793     -591.17788335
  entropy T*S    EENTRO =        -0.00000000
  eigenvalues    EBANDS =      -173.97646871
  atomic energy  EATOM  =       766.04200436
  Solvation  Ediel_sol  =         0.00000000
  ---------------------------------------------------
  free energy    TOTEN  =        -0.22848733 eV

  energy without entropy =       -0.22848733  energy(sigma->0) =       -0.22848733


--------------------------------------------------------------------------------------------------------




--------------------------------------- Iteration      1(  20)  ---------------------------------------


    POTLOK:  cpu time      0.3254: real time      0.3275
    SETDIJ:  cpu time      0.1999: real time      0.2008
     EDDAV:  cpu time      0.0456: real time      0.0459
       DOS:  cpu time      0.0002: real time      0.0002
    CHARGE:  cpu time      0.0223: real time      0.0225
    MIXING:  cpu time      0.0061: real time      0.0061
    --------------------------------------------
      LOOP:  cpu time      0.5994: real time      0.6030

 eigenvalue-minimisations  :    40
 total energy-change (2. order) :-0.3689855E-04  (-0.3070513E-07)
 number of electron       6.9999987 magnetization       0.9999983
 augmentation part        4.4642784 magnetization      -0.0046488

 Broyden mixing:
  rms(total) = 0.16817E-04    rms(broyden)= 0.16817E-04
  rms(prec ) = 0.24317E-04
  weight for this iteration     100.00

 eigenvalues of (default mixing * dielectric matrix)
  average eigenvalue GAMMA=   1.8439
  7.9590  4.3416  2.9285  2.3599  1.7143  1.2932  1.1371  0.9598  0.8422  0.8134
  0.8134  0.6054  0.6207  0.6349  0.6349

 Free energy of the ion-electron system (eV)
  ---------------------------------------------------
  alpha Z        PSCENC =         0.08856175
  Ewald energy   TEWEN  =       -66.28833240
  -Hartree energ DENC   =      -461.56411024
  -exchange      EXHF   =         0.00000000
  -V(xc)+E(xc)   XCENC  =        24.08507385
  PAW double counting   =       502.55805093     -591.17267647
  entropy T*S    EENTRO =        -0.00000000
  eigenvalues    EBANDS =      -173.97709599
  atomic energy  EATOM  =       766.04200436
  Solvation  Ediel_sol  =         0.00000000
  ---------------------------------------------------
  free energy    TOTEN  =        -0.22852422 eV

  energy without entropy =       -0.22852422  energy(sigma->0) =       -0.22852422


--------------------------------------------------------------------------------------------------------




--------------------------------------- Iteration      1(  21)  ---------------------------------------


    POTLOK:  cpu time      0.3255: real time      0.3282
    SETDIJ:  cpu time      0.2000: real time      0.2009
     EDDAV:  cpu time      0.0453: real time      0.0457
       DOS:  cpu time      0.0002: real time      0.0002
    CHARGE:  cpu time      0.0220: real time      0.0222
    MIXING:  cpu time      0.0063: real time      0.0063
    --------------------------------------------
      LOOP:  cpu time      0.5993: real time      0.6034

 eigenvalue-minimisations  :    40
 total energy-change (2. order) :-0.4086871E-04  (-0.3557730E-07)
 number of electron       6.9999987 magnetization       0.9999991
 augmentation part        4.4642784 magnetization      -0.0046481

 Broyden mixing:
  rms(total) = 0.15079E-04    rms(broyden)= 0.15079E-04
  rms(prec ) = 0.18235E-04
  weight for this iteration     100.00

 eigenvalues of (default mixing * dielectric matrix)
  average eigenvalue GAMMA=   1.8641
  8.3539  4.4656  3.2181  2.3367  1.9718  1.4271  1.2496  1.0710  0.8893  0.8243
  0.8243  0.7103  0.6317  0.6317  0.6101  0.6101

 Free energy of the ion-electron system (eV)
  ---------------------------------------------------
  alpha Z        PSCENC =         0.08856175
  Ewald energy   TEWEN  =       -66.28833240
  -Hartree energ DENC   =      -461.56375916
  -exchange      EXHF   =         0.00000000
  -V(xc)+E(xc)   XCENC  =        24.08503501
  PAW double counting   =       502.55896366     -591.17365184
  entropy T*S    EENTRO =        -0.00000000
  eigenvalues    EBANDS =      -173.97738646
  atomic energy  EATOM  =       766.04200436
  Solvation  Ediel_sol  =         0.00000000
  ---------------------------------------------------
  free energy    TOTEN  =        -0.22856509 eV

  energy without entropy =       -0.22856509  energy(sigma->0) =       -0.22856509


--------------------------------------------------------------------------------------------------------




--------------------------------------- Iteration      1(  22)  ---------------------------------------


    POTLOK:  cpu time      0.3239: real time      0.3260
    SETDIJ:  cpu time      0.2002: real time      0.2011
     EDDAV:  cpu time      0.0456: real time      0.0460
       DOS:  cpu time      0.0002: real time      0.0002
    CHARGE:  cpu time      0.0221: real time      0.0222
    MIXING:  cpu time      0.0066: real time      0.0066
    --------------------------------------------
      LOOP:  cpu time      0.5985: real time      0.6021

 eigenvalue-minimisations  :    40
 total energy-change (2. order) :-0.3438614E-04  (-0.1058959E-07)
 number of electron       6.9999987 magnetization       0.9999996
 augmentation part        4.4642826 magnetization      -0.0046467

 Broyden mixing:
  rms(total) = 0.46032E-05    rms(broyden)= 0.46030E-05
  rms(prec ) = 0.69328E-05
  weight for this iteration     100.00

 eigenvalues of (default mixing * dielectric matrix)
  average eigenvalue GAMMA=   1.8975
  8.4552  4.9609  3.5259  2.5578  2.1284  1.5484  1.3275  1.0908  1.0211  0.8234
  0.8234  0.8233  0.6118  0.6118  0.6332  0.6332  0.6809

 Free energy of the ion-electron system (eV)
  ---------------------------------------------------
  alpha Z        PSCENC =         0.08856175
  Ewald energy   TEWEN  =       -66.28833240
  -Hartree energ DENC   =      -461.56323281
  -exchange      EXHF   =         0.00000000
  -V(xc)+E(xc)   XCENC  =        24.08497215
  PAW double counting   =       502.55868649     -591.17311197
  entropy T*S    EENTRO =        -0.00000000
  eigenvalues    EBANDS =      -173.97814704
  atomic energy  EATOM  =       766.04200436
  Solvation  Ediel_sol  =         0.00000000
  ---------------------------------------------------
  free energy    TOTEN  =        -0.22859948 eV

  energy without entropy =       -0.22859948  energy(sigma->0) =       -0.22859948


--------------------------------------------------------------------------------------------------------




--------------------------------------- Iteration      1(  23)  ---------------------------------------


    POTLOK:  cpu time      0.3680: real time      0.3705
    SETDIJ:  cpu time      0.2000: real time      0.2010
     EDDAV:  cpu time      0.0389: real time      0.0392
       DOS:  cpu time      0.0002: real time      0.0002
    CHARGE:  cpu time      0.0224: real time      0.0225
    MIXING:  cpu time      0.0066: real time      0.0066
    --------------------------------------------
      LOOP:  cpu time      0.6361: real time      0.6400

 eigenvalue-minimisations  :    32
 total energy-change (2. order) :-0.1474683E-04  (-0.9857168E-08)
 number of electron       6.9999987 magnetization       0.9999999
 augmentation part        4.4642844 magnetization      -0.0046468

 Broyden mixing:
  rms(total) = 0.53123E-05    rms(broyden)= 0.53122E-05
  rms(prec ) = 0.63469E-05
  weight for this iteration     100.00

 eigenvalues of (default mixing * dielectric matrix)
  average eigenvalue GAMMA=   1.9763
  8.8282  5.6465  3.9735  2.7068  2.4219  1.7726  1.4068  1.2296  1.0642  0.9300
  0.8296  0.8296  0.7574  0.6080  0.6207  0.6397  0.6397  0.6688

 Free energy of the ion-electron system (eV)
  ---------------------------------------------------
  alpha Z        PSCENC =         0.08856175
  Ewald energy   TEWEN  =       -66.28833240
  -Hartree energ DENC   =      -461.56315602
  -exchange      EXHF   =         0.00000000
  -V(xc)+E(xc)   XCENC  =        24.08495527
  PAW double counting   =       502.55922963     -591.17356719
  entropy T*S    EENTRO =        -0.00000000
  eigenvalues    EBANDS =      -173.97830962
  atomic energy  EATOM  =       766.04200436
  Solvation  Ediel_sol  =         0.00000000
  ---------------------------------------------------
  free energy    TOTEN  =        -0.22861423 eV

  energy without entropy =       -0.22861423  energy(sigma->0) =       -0.22861423


--------------------------------------------------------------------------------------------------------




--------------------------------------- Iteration      1(  24)  ---------------------------------------


    POTLOK:  cpu time      0.3155: real time      0.3177
    SETDIJ:  cpu time      0.2011: real time      0.2020
     EDDAV:  cpu time      0.0456: real time      0.0459
       DOS:  cpu time      0.0002: real time      0.0002
    --------------------------------------------
      LOOP:  cpu time      0.5624: real time      0.5658

 eigenvalue-minimisations  :    40
 total energy-change (2. order) :-0.9761589E-05  (-0.3105103E-08)
 number of electron       6.9999987 magnetization       0.9999999
 augmentation part        4.4642844 magnetization      -0.0046468

 Free energy of the ion-electron system (eV)
  ---------------------------------------------------
  alpha Z        PSCENC =         0.08856175
  Ewald energy   TEWEN  =       -66.28833240
  -Hartree energ DENC   =      -461.56319481
  -exchange      EXHF   =         0.00000000
  -V(xc)+E(xc)   XCENC  =        24.08494914
  PAW double counting   =       502.55958168     -591.17391664
  entropy T*S    EENTRO =        -0.00000000
  eigenvalues    EBANDS =      -173.97827706
  atomic energy  EATOM  =       766.04200436
  Solvation  Ediel_sol  =         0.00000000
  ---------------------------------------------------
  free energy    TOTEN  =        -0.22862399 eV

  energy without entropy =       -0.22862399  energy(sigma->0) =       -0.22862399


--------------------------------------------------------------------------------------------------------




 average (electrostatic) potential at core
  the test charge radii are     0.9254
  (the norm of the test charge is              1.0000)
       1 -54.2994
 
 
 
 E-fermi :  -2.1596     XC(G=0):  -0.2866     alpha+bet : -0.0507

 Fermi energy:        -2.1595795707

 spin component 1

 k-point     1 :       0.0000    0.0000    0.0000
  band No.  band energies     occupation 
      1     -28.5400      1.00000
      2     -28.5400      1.00000
      3     -28.5400      1.00000
      4      -2.9945      1.00000
      5      -0.8805      0.00000
      6      -0.8798      0.00000
      7      -0.8791      0.00000
      8      -0.2488      0.00000
 Fermi energy:        -2.1595795707

 spin component 2

 k-point     1 :       0.0000    0.0000    0.0000
  band No.  band energies     occupation 
      1     -28.4546      1.00000
      2     -28.4546      1.00000
      3     -28.4546      1.00000
      4      -1.3247      0.00000
      5       0.1129      0.00000
      6       0.6412      0.00000
      7       0.6536      0.00000
      8       0.6949      0.00000


--------------------------------------------------------------------------------------------------------


 soft charge-density along one line, spin component           1
         0         1         2         3         4         5         6         7         8         9
 total charge-density along one line
 
 soft charge-density along one line, spin component           2
         0         1         2         3         4         5         6         7         8         9
 total charge-density along one line
 
 pseudopotential strength for first ion, spin component:           1
-30.766   0.000   0.000   5.194  -0.000  -0.000  -0.000  -0.000
  0.000 -30.766   0.000  -0.000   5.194  -0.000  -0.000  -0.000
  0.000   0.000 -30.766  -0.000  -0.000   5.194  -0.000  -0.000
  5.194  -0.000  -0.000   5.617   0.000  -0.000   0.000   0.000
 -0.000   5.194  -0.000   0.000   5.617   0.000   0.000   0.000
 -0.000  -0.000   5.194  -0.000   0.000   5.617   0.000   0.000
 -0.000  -0.000  -0.000   0.000   0.000   0.000   1.416   7.115
 -0.000  -0.000  -0.000   0.000   0.000   0.000   7.115  35.217
 pseudopotential strength for first ion, spin component:           2
-30.737  -0.000  -0.000   5.185   0.000   0.000  -0.000  -0.000
 -0.000 -30.737  -0.000   0.000   5.185   0.000  -0.000  -0.000
 -0.000  -0.000 -30.737   0.000   0.000   5.185  -0.000  -0.000
  5.185   0.000   0.000   5.622  -0.000  -0.000   0.000   0.000
  0.000   5.185   0.000  -0.000   5.622  -0.000   0.000   0.000
  0.000   0.000   5.185  -0.000  -0.000   5.622   0.000   0.000
 -0.000  -0.000  -0.000   0.000   0.000   0.000   1.415   7.113
 -0.000  -0.000  -0.000   0.000   0.000   0.000   7.113  35.211
 total augmentation occupancy for first ion, spin component:           1
  2.000  -0.000   0.000  -0.000  -0.000  -0.000   0.000  -0.000
 -0.000   2.000   0.000  -0.000  -0.000   0.000   0.000  -0.000
  0.000   0.000   2.000  -0.000   0.000  -0.000   0.000  -0.000
 -0.000  -0.000  -0.000   0.000   0.000   0.000   0.000   0.000
 -0.000  -0.000   0.000   0.000   0.000  -0.000   0.000   0.000
 -0.000   0.000  -0.000   0.000  -0.000   0.000   0.000   0.000
  0.000   0.000   0.000   0.000   0.000   0.000   1.004   0.001
 -0.000  -0.000  -0.000   0.000   0.000   0.000   0.001   0.000
 total augmentation occupancy for first ion, spin component:           2
  0.001   0.000   0.000   0.004   0.000   0.000  -0.000   0.000
  0.000   0.001  -0.000   0.000   0.004  -0.000  -0.000   0.000
  0.000  -0.000   0.001   0.000  -0.000   0.004  -0.000   0.000
  0.004   0.000   0.000  -0.000  -0.000  -0.000   0.000  -0.000
  0.000   0.004  -0.000  -0.000  -0.000   0.000   0.000  -0.000
  0.000  -0.000   0.004  -0.000   0.000  -0.000   0.000  -0.000
 -0.000  -0.000  -0.000   0.000   0.000   0.000   1.004   0.001
  0.000   0.000   0.000  -0.000  -0.000  -0.000   0.001   0.000


------------------------ aborting loop because EDIFF is reached ----------------------------------------


    CHARGE:  cpu time      0.0226: real time      0.0228
    FORLOC:  cpu time      0.0019: real time      0.0019
    FORNL :  cpu time      0.0047: real time      0.0048
    STRESS:  cpu time      0.0160: real time      0.0161
    FORCOR:  cpu time      0.3124: real time      0.3147
    FORHAR:  cpu time      0.0295: real time      0.0298
    MIXING:  cpu time      0.0072: real time      0.0073
    OFIELD:  cpu time      0.0001: real time      0.0000

  FORCE on cell =-STRESS in cart. coord.  units (eV):
  Direction    XX          YY          ZZ          XY          YZ          ZX
  --------------------------------------------------------------------------------------
  Alpha Z     0.08856     0.08856     0.08856
  Ewald     -21.65015   -22.09650   -22.54168     0.00000     0.00000     0.00000
  Hartree   154.29183   153.85403   153.41737     0.00000     0.00000     0.00000
  E(xc)     -37.29355   -37.29355   -37.29355    -0.00000     0.00000     0.00000
  Local    -163.27794  -162.39376  -161.51191    -0.00000    -0.00000    -0.00000
  n-local   -22.40957   -22.40963   -22.40957     0.00000     0.00000     0.00000
  augment    42.02469    42.02532    42.02505     0.00000     0.00000     0.00000
  Kinetic    48.22198    48.22209    48.22216    -0.00000    -0.00000     0.00000
  Fock        0.00000     0.00000     0.00000     0.00000     0.00000     0.00000
  -------------------------------------------------------------------------------------
  Total      -0.00416    -0.00344    -0.00357     0.00000    -0.00000     0.00000
  in kB      -0.00194    -0.00160    -0.00166     0.00000    -0.00000     0.00000
  external pressure =       -0.00 kB  Pullay stress =        0.00 kB


 VOLUME and BASIS-vectors are now :
 -----------------------------------------------------------------------------
  energy-cutoff  :      520.00
  volume of cell :     3442.80
      direct lattice vectors                 reciprocal lattice vectors
    15.000000000  0.000000000  0.000000000     0.066666667 -0.000000000  0.000000000
     0.000000000 15.100000000  0.000000000     0.000000000  0.066225166  0.000000000
     0.000000000  0.000000000 15.200000000    -0.000000000 -0.000000000  0.065789474

  length of vectors
    15.000000000 15.100000000 15.200000000     0.066666667  0.066225166  0.065789474


 FORCES acting on ions
    electron-ion (+dipol)            ewald-force                    non-local-force                 convergence-correction
 -----------------------------------------------------------------------------------------------
   -.357E-06 -.324E-06 -.874E-06   0.933E-17 0.909E-17 -.291E-17   -.912E-06 -.151E-05 -.188E-05   0.134E-05 0.192E-05 0.301E-05
 -----------------------------------------------------------------------------------------------
   -.357E-06 -.324E-06 -.874E-06   0.933E-17 0.909E-17 -.291E-17   -.912E-06 -.151E-05 -.188E-05   0.134E-05 0.192E-05 0.301E-05
 
 
 POSITION                                       TOTAL-FORCE (eV/Angst)
 -----------------------------------------------------------------------------------
      0.00000      0.00000      0.00000         0.000000      0.000000      0.000000
 -----------------------------------------------------------------------------------
    total drift:                                0.000000      0.000000      0.000000


--------------------------------------------------------------------------------------------------------



  FREE ENERGIE OF THE ION-ELECTRON SYSTEM (eV)
  ---------------------------------------------------
  free  energy   TOTEN  =        -0.22862399 eV

  energy  without entropy=       -0.22862399  energy(sigma->0) =       -0.22862399
 


--------------------------------------------------------------------------------------------------------


    POTLOK:  cpu time      0.5276: real time      0.5307


--------------------------------------------------------------------------------------------------------


     LOOP+:  cpu time     13.3986: real time     13.4827
    4ORBIT:  cpu time      0.0000: real time      0.0000

 total amount of memory used by VASP MPI-rank0    58360. kBytes
=======================================================================

   base      :      30000. kBytes
   nonl-proj :        116. kBytes
   fftplans  :       8156. kBytes
   grid      :      19898. kBytes
   one-center:          3. kBytes
   wavefun   :        187. kBytes
 
  
  
 General timing and accounting informations for this job:
 ========================================================
  
                  Total CPU time used (sec):       14.935
                            User time (sec):       13.026
                          System time (sec):        1.908
                         Elapsed time (sec):       15.582
  
                   Maximum memory used (kb):      448684.
                   Average memory used (kb):          N/A
  
                          Minor page faults:       101561
                          Major page faults:           19
                 Voluntary context switches:         1295
