 vasp.6.4.2 20Jul23 (build Aug 07 2024 12:45:50) gamma-only                     
  
 executed on             LinuxIFC date 2026.09.30  12:25:39
 running   64 mpi-ranks, on    1 nodes
 distrk:  each k-point on   64 cores,    1 groups
 distr:  one band on NCORE=  32 cores,    2 groups


--------------------------------------------------------------------------------------------------------


 INCAR:
   ALGO = Normal
   EDIFF = 1e-05
   EFERMI = Midgap
   ENCUT = 520.0
   GGA = Pe
   GGA_COMPAT = False
   IBRION = -1
   ISMEAR = 0
   ISPIN = 1
   ISYM = 0
   LAECHG = False
   LASPH = True
   LCHARG = False
   LMAXMIX = 6
   LMIXTAU = True
   LREAL = False
   LWAVE = False
   NCORE = 32
   NELM = 400
   NSW = 0
   PREC = Accurate
   SIGMA = 0.05
   SYSTEM = Na_atom_ispin1

 POTCAR:    PAW_PBE Na_pv 19Sep2006               
 -----------------------------------------------------------------------------
|                                                                             |
|           W    W    AA    RRRRR   N    N  II  N    N   GGGG   !!!           |
|           W    W   A  A   R    R  NN   N  II  NN   N  G    G  !!!           |
|           W    W  A    A  R    R  N N  N  II  N N  N  G       !!!           |
|           W WW W  AAAAAA  RRRRR   N  N N  II  N  N N  G  GGG   !            |
|           WW  WW  A    A  R   R   N   NN  II  N   NN  G    G                |
|           W    W  A    A  R    R  N    N  II  N    N   GGGG   !!!           |
|                                                                             |
|     For optimal performance we recommend to set                             |
|       NCORE = 2 up to number-of-cores-per-socket                            |
|     NCORE specifies how many cores store one orbital (NPAR=cpu/NCORE).      |
|     This setting can greatly improve the performance of VASP for DFT.       |
|     The default, NCORE=1 might be grossly inefficient on modern             |
|     multi-core architectures or massively parallel machines. Do your        |
|     own testing! More info at https://www.vasp.at/wiki/index.php/NCORE      |
|     Unfortunately you need to use the default for GW and RPA                |
|     calculations (for HF NCORE is supported but not extensively tested      |
|     yet).                                                                   |
|                                                                             |
 -----------------------------------------------------------------------------

 POTCAR:    PAW_PBE Na_pv 19Sep2006               
   SHA256 =  6a2f546d9e11350984debacf3dc457d8cffc0868e817d445faca461816a32b94 Na_pv/POTCAR          
   COPYR  = (c) Copyright 19Sep2006 Georg Kresse                                                    
   COPYR  = This file is part of the software VASP. Any use, copying, and all other rights are regul
   COPYR  = If you do not have a valid VASP license, you may not use, copy or distribute this file. 
   VRHFIN =Na: p6s1                                                                                 
   LEXCH  = PE                                                                                      
   EATOM  =   766.0439 eV,   56.3026 Ry                                                             
                                                                                                    
   TITEL  = PAW_PBE Na_pv 19Sep2006                                                                 
   LULTRA =        F    use ultrasoft PP ?                                                          
   IUNSCR =        1    unscreen: 0-lin 1-nonlin 2-no                                               
   RPACOR =    1.800    partial core radius                                                         
   POMASS =   22.990; ZVAL   =    7.000    mass and valenz                                          
   RCORE  =    2.200    outmost cutoff radius                                                       
   RWIGS  =    2.200; RWIGS  =    1.164    wigner-seitz radius (au A)                               
   ENMAX  =  259.561; ENMIN  =  194.671 eV                                                          
   ICORE  =        2    local potential                                                             
   LCOR   =        T    correct aug charges                                                         
   LPAW   =        T    paw PP                                                                      
   EAUG   =  368.056                                                                                
   DEXC   =    0.000                                                                                
   RMAX   =    2.245    core radius for proj-oper                                                   
   RAUG   =    1.300    factor for augmentation sphere                                              
   RDEP   =    2.259    radius for radial grids                                                     
   RDEPT  =    1.738    core radius for aug-charge                                                  
                                                                                                    
   Atomic configuration                                                                             
    5 entries                                                                                       
     n  l   j            E        occ.                                                              
     1  0  0.50     -1033.6933   2.0000                                                             
     2  0  0.50       -56.7526   2.0000                                                             
     2  1  1.50       -28.6721   6.0000                                                             
     3  0  0.50        -2.7440   1.0000                                                             
     3  2  1.50        -1.3606   0.0000                                                             
   Description                                                                                      
     l       E           TYP  RCUT    TYP  RCUT                                                     
     1    -28.6720912     23  2.000                                                                 
     1      6.8029130     23  2.000                                                                 
     0     -2.7439560     23  2.200                                                                 
     0     34.0145650     23  2.200                                                                 
     2     -1.3605826     23  2.200                                                                 
  local pseudopotential read in
  partial core-charges read in
  partial kinetic energy density read in
  atomic valenz-charges read in
  non local Contribution for L=           1  read in
    real space projection operators read in
  non local Contribution for L=           1  read in
    real space projection operators read in
  non local Contribution for L=           0  read in
    real space projection operators read in
  non local Contribution for L=           0  read in
    real space projection operators read in
    PAW grid and wavefunctions read in
 
   number of l-projection  operators is LMAX  =           4
   number of lm-projection operators is LMMAX =           8
 
  PAW_PBE Na_pv 19Sep2006               :
 energy of atom  1       EATOM= -766.0439
 kinetic energy error for atom=    0.0019 (will be added to EATOM!!)
 
 
 POSCAR: Na1
  positions in direct lattice
  No initial velocities read in
 exchange correlation table for  LEXCH =        8
   RHO(1)=    0.500       N(1)  =     2000
   RHO(2)=  100.500       N(2)  =     4000
 


--------------------------------------------------------------------------------------------------------


 ion  position               nearest neighbor table
   1  0.000  0.000  0.000-
 

IMPORTANT INFORMATION: All symmetrisations will be switched off!
NOSYMM: (Re-)initialisation of all symmetry stuff for point group C_1.


----------------------------------------------------------------------------------------

                                     Primitive cell                                     

  volume of cell :    9393.7200

  direct lattice vectors                    reciprocal lattice vectors
    21.000000000  0.000000000  0.000000000     0.047619048 -0.000000000  0.000000000
     0.000000000 21.100000000  0.000000000     0.000000000  0.047393365  0.000000000
     0.000000000  0.000000000 21.200000000    -0.000000000 -0.000000000  0.047169811

  length of vectors
    21.000000000 21.100000000 21.200000000     0.047619048  0.047393365  0.047169811

  position of ions in fractional coordinates (direct lattice)
     0.000000000  0.000000000  0.000000000

  ion indices of the primitive-cell ions
   primitive index   ion index
                 1           1

----------------------------------------------------------------------------------------

 
 
 KPOINTS: Automatic kpoint scheme                 

Automatic generation of k-mesh.
 Grid dimensions read from file:
 generate k-points for:    1    1    1

 Generating k-lattice:

  Cartesian coordinates                     Fractional coordinates (reciprocal lattice)
     0.047619048 -0.000000000  0.000000000     1.000000000  0.000000000  0.000000000
     0.000000000  0.047393365  0.000000000     0.000000000  1.000000000  0.000000000
    -0.000000000 -0.000000000  0.047169811    -0.000000000 -0.000000000  1.000000000

  Length of vectors
     0.047619048  0.047393365  0.047169811

  Shift w.r.t. Gamma in fractional coordinates (k-lattice)
     0.000000000  0.000000000  0.000000000

 
 Subroutine IBZKPT returns following result:
 ===========================================
 
 Found      1 irreducible k-points:
 
 Following reciprocal coordinates:
            Coordinates               Weight
  0.000000  0.000000  0.000000      1.000000
 
 Following cartesian coordinates:
            Coordinates               Weight
  0.000000  0.000000  0.000000      1.000000
 


--------------------------------------------------------------------------------------------------------




 Dimension of arrays:
   k-points           NKPTS =      1   k-points in BZ     NKDIM =      1   number of bands    NBANDS=      8
   number of dos      NEDOS =    301   number of ions     NIONS =      1
   non local maximal  LDIM  =      4   non local SUM 2l+1 LMDIM =      8
   total plane-waves  NPLWV = ******
   max r-space proj   IRMAX =      1   max aug-charges    IRDMAX=  12132
   dimension x,y,z NGX =   160 NGY =  160 NGZ =  160
   dimension x,y,z NGXF=   320 NGYF=  320 NGZF=  320
   support grid    NGXF=   320 NGYF=  320 NGZF=  320
   ions per type =               1
   NGX,Y,Z   is equivalent  to a cutoff of  12.67, 12.61, 12.55 a.u.
   NGXF,Y,Z  is equivalent  to a cutoff of  25.33, 25.21, 25.09 a.u.

 SYSTEM =  Na_atom_ispin1                          
 POSCAR =  Na1                                     

 Startparameter for this run:
   NWRITE =      2    write-flag & timer
   PREC   = accura    normal or accurate (medium, high low for compatibility)
   ISTART =      0    job   : 0-new  1-cont  2-samecut
   ICHARG =      2    charge: 1-file 2-atom 10-const
   ISPIN  =      1    spin polarized calculation?
   LNONCOLLINEAR =      F non collinear calculations
   LSORBIT =      F    spin-orbit coupling
   INIWAV =      1    electr: 0-lowe 1-rand  2-diag
   LASPH  =      T    aspherical Exc in radial PAW
 Electronic Relaxation 1
   ENCUT  =  520.0 eV  38.22 Ry    6.18 a.u.  39.05 39.23 39.42*2*pi/ulx,y,z
   ENINI  =  520.0     initial cutoff
   ENAUG  =  368.1 eV  augmentation charge cutoff
   NELM   =    400;   NELMIN=  2; NELMDL=  0     # of ELM steps 
   EDIFF  = 0.1E-04   stopping-criterion for ELM
   LREAL  =      F    real-space projection
   NLSPLINE    = F    spline interpolate recip. space projectors
   LCOMPAT=      F    compatible to vasp.4.4
   GGA_COMPAT  = F    GGA compatible to vasp.4.4-vasp.4.6
   LMAXPAW     = -100 max onsite density
   LMAXMIX     =    6 max onsite mixed and CHGCAR
   VOSKOWN=      0    Vosko Wilk Nusair interpolation
   ROPT   =    0.00000
 Ionic relaxation
   EDIFFG = 0.1E-03   stopping-criterion for IOM
   NSW    =      0    number of steps for IOM
   NBLOCK =      1;   KBLOCK =      1    inner block; outer block 
   IBRION =     -1    ionic relax: 0-MD 1-quasi-New 2-CG
   NFREE  =      0    steps in history (QN), initial steepest desc. (CG)
   ISIF   =      2    stress and relaxation
   IWAVPR =     10    prediction:  0-non 1-charg 2-wave 3-comb
   ISYM   =      0    0-nonsym 1-usesym 2-fastsym
   LCORR  =      T    Harris-Foulkes like correction to forces

   POTIM  = 0.5000    time-step for ionic-motion
   TEIN   =    0.0    initial temperature
   TEBEG  =    0.0;   TEEND  =   0.0 temperature during run
   SMASS  =  -3.00    Nose mass-parameter (am)
   estimated Nose-frequenzy (Omega)   =  0.10E-29 period in steps = 0.13E+47 mass=  -0.101E-25a.u.
   SCALEE = 1.0000    scale energy and forces
   NPACO  =    256;   APACO  = 10.0  distance and # of slots for P.C.
   PSTRESS=    0.0 pullay stress

  Mass of Ions in am
   POMASS =  22.99
  Ionic Valenz
   ZVAL   =   7.00
  Atomic Wigner-Seitz radii
   RWIGS  =  -1.00
  virtual crystal weights 
   VCA    =   1.00
   NELECT =       7.0000    total number of electrons
   NUPDOWN=      -1.0000    fix difference up-down

 DOS related values:
   EMIN   =  10.00;   EMAX   =-10.00  energy-range for DOS
   EFERMI =   0.00;   METHOD = MIDGAP      
   ISMEAR =     0;   SIGMA  =   0.05  broadening in eV -4-tet -1-fermi 0-gaus

 Electronic relaxation 2 (details)
   IALGO  =     38    algorithm
   LDIAG  =      T    sub-space diagonalisation (order eigenvalues)
   LSUBROT=      F    optimize rotation matrix (better conditioning)
   TURBO    =      0    0=normal 1=particle mesh
   IRESTART =      0    0=no restart 2=restart with 2 vectors
   NREBOOT  =      0    no. of reboots
   NMIN     =      0    reboot dimension
   EREF     =   0.00    reference energy to select bands
   IMIX   =      4    mixing-type and parameters
     AMIX     =   0.40;   BMIX     =  1.00
     AMIX_MAG =   1.60;   BMIX_MAG =  1.00
     AMIN     =   0.10
     WC   =   100.;   INIMIX=   1;  MIXPRE=   1;  MAXMIX= -45

 Intra band minimization:
   WEIMIN = 0.0000     energy-eigenvalue tresh-hold
   EBREAK =  0.31E-06  absolut break condition
   DEPER  =   0.30     relativ break condition  

   TIME   =   0.40     timestep for ELM

  volume/ion in A,a.u.               =    9393.72     63391.95
  Fermi-wavevector in a.u.,A,eV,Ry     =   0.148421  0.280475  0.299719  0.022029
  Thomas-Fermi vector in A             =   0.821488
 
 Write flags
   LWAVE        =      F    write WAVECAR
   LDOWNSAMPLE  =      F    k-point downsampling of WAVECAR
   LCHARG       =      F    write CHGCAR
   LVTOT        =      F    write LOCPOT, total local potential
   LVHAR        =      F    write LOCPOT, Hartree potential only
   LELF         =      F    write electronic localiz. function (ELF)
   LORBIT       =      0    0 simple, 1 ext, 2 COOP (PROOUT), +10 PAW based schemes


 Dipole corrections
   LMONO  =      F    monopole corrections only (constant potential shift)
   LDIPOL =      F    correct potential (dipole corrections)
   IDIPOL =      0    1-x, 2-y, 3-z, 4-all directions 
   EPSILON=  1.0000000 bulk dielectric constant

 Exchange correlation treatment:
   GGA     =    PE    GGA type
   LEXCH   =     8    internal setting for exchange type
   LIBXC   =     F    Libxc                    
   VOSKOWN =     0    Vosko Wilk Nusair interpolation
   LHFCALC =     F    Hartree Fock is set to
   LHFONE  =     F    Hartree Fock one center treatment
   AEXX    =    0.0000 exact exchange contribution

 Linear response parameters
   LEPSILON=     F    determine dielectric tensor
   LRPA    =     F    only Hartree local field effects (RPA)
   LNABLA  =     F    use nabla operator in PAW spheres
   LVEL    =     F    velocity operator in full k-point grid
   CSHIFT  =0.1000    complex shift for real part using Kramers Kronig
   OMEGAMAX=  -1.0    maximum frequency
   DEG_THRESHOLD= 0.2000000E-02 threshold for treating states as degnerate
   RTIME   =   -0.100 relaxation time in fs
  (WPLASMAI=    0.000 imaginary part of plasma frequency in eV, 0.658/RTIME)
   DFIELD  = 0.0000000 0.0000000 0.0000000 field for delta impulse in time
 
  Optional k-point grid parameters
   LKPOINTS_OPT  =     F    use optional k-point grid
   KPOINTS_OPT_MODE=     1    mode for optional k-point grid
 
 Orbital magnetization related:
   ORBITALMAG=     F  switch on orbital magnetization
   LCHIMAG   =     F  perturbation theory with respect to B field
   DQ        =  0.001000  dq finite difference perturbation B field
   LLRAUG    =     F  two centre corrections for induced B field
   LBONE     =     F  B-component reconstruction in AE one-centre
   LVGVCALC  =     T  calculate vGv susceptibility
   LVGVAPPL  =     F  apply vGv susceptibility instead of pGv for G=0

 Random number generation:
   RANDOM_GENERATOR = DEFAULT
   PCG_SEED         = not used


--------------------------------------------------------------------------------------------------------


 Static calculation
 charge density and potential will be updated during run
 non-spin polarized calculation
 Variant of blocked Davidson
 Davidson routine will perform the subspace rotation
 perform sub-space diagonalisation
    after iterative eigenvector-optimisation
 modified Broyden-mixing scheme, WC =      100.0
 initial mixing is a Kerker type mixing with AMIX =  0.4000 and BMIX =      1.0000
 Hartree-type preconditioning will be used
 using additional bands            4
 reciprocal scheme for non local part
 use partial core corrections
 calculate Harris-corrections to forces 
   (improved forces if not selfconsistent)
 use gradient corrections 
 use of overlap-Matrix (Vanderbilt PP)
 Gauss-broadening in eV      SIGMA  =   0.05


--------------------------------------------------------------------------------------------------------


  energy-cutoff  :      520.00
  volume of cell :     9393.72
      direct lattice vectors                 reciprocal lattice vectors
    21.000000000  0.000000000  0.000000000     0.047619048 -0.000000000  0.000000000
     0.000000000 21.100000000  0.000000000     0.000000000  0.047393365  0.000000000
     0.000000000  0.000000000 21.200000000    -0.000000000 -0.000000000  0.047169811

  length of vectors
    21.000000000 21.100000000 21.200000000     0.047619048  0.047393365  0.047169811


 
 k-points in units of 2pi/SCALE and weight: Automatic kpoint scheme                 
   0.00000000  0.00000000  0.00000000       1.000
 
 k-points in reciprocal lattice and weights: Automatic kpoint scheme                 
   0.00000000  0.00000000  0.00000000       1.000
 
 position of ions in fractional coordinates (direct lattice) 
   0.00000000  0.00000000  0.00000000
 
 position of ions in cartesian coordinates  (Angst):
   0.00000000  0.00000000  0.00000000
 


--------------------------------------------------------------------------------------------------------


 use parallel FFT for orbitals z direction half grid
 k-point   1 :   0.0000 0.0000 0.0000  plane waves:  126448

 maximum and minimum number of plane-waves per node :      3962     3935

 maximum number of plane-waves:    126448
 maximum index in each direction: 
   IXMAX=   39   IYMAX=   39   IZMAX=   39
   IXMIN=  -39   IYMIN=  -39   IZMIN=    0


 parallel 3D FFT for wavefunctions:
    minimum data exchange during FFTs selected (reduces bandwidth)
 parallel 3D FFT for charge:
    minimum data exchange during FFTs selected (reduces bandwidth)


 total amount of memory used by VASP MPI-rank0    80487. kBytes
=======================================================================

   base      :      30000. kBytes
   nonl-proj :        314. kBytes
   fftplans  :      20109. kBytes
   grid      :      29811. kBytes
   one-center:          1. kBytes
   wavefun   :        252. kBytes
 
     INWAV:  cpu time      0.0000: real time      0.0000
 Broyden mixing: mesh for mixing (old mesh)
   NGX = 79   NGY = 79   NGZ = 79
  (NGX  =320   NGY  =320   NGZ  =320)
  gives a total of 493039 points

 initial charge density was supplied:
 charge density of overlapping atoms calculated
 number of electron       7.0000000 magnetization 
 keeping initial charge density in first step


--------------------------------------------------------------------------------------------------------


 Maximum index for augmentation-charges          611 (set IRDMAX)


--------------------------------------------------------------------------------------------------------


 First call to EWALD:  gamma=   0.084
 Maximum number of real-space cells 3x 3x 3
 Maximum number of reciprocal cells 3x 3x 3

    FEWALD:  cpu time      0.0019: real time      0.0019


--------------------------------------- Ionic step        1  -------------------------------------------




--------------------------------------- Iteration      1(   1)  ---------------------------------------


    POTLOK:  cpu time      0.3196: real time      0.3224
    SETDIJ:  cpu time      0.0461: real time      0.0464
     EDDAV:  cpu time      0.0718: real time      0.0723
       DOS:  cpu time      0.0005: real time      0.0006
    --------------------------------------------
      LOOP:  cpu time      0.4380: real time      0.4417

 eigenvalue-minimisations  :    16
 total energy-change (2. order) : 0.1714712E+03  (-0.5338813E+02)
 number of electron       7.0000000 magnetization 
 augmentation part        7.0000000 magnetization 

 Free energy of the ion-electron system (eV)
  ---------------------------------------------------
  alpha Z        PSCENC =         0.03245790
  Ewald energy   TEWEN  =       -47.43926195
  -Hartree energ DENC   =      -479.39332777
  -exchange      EXHF   =         0.00000000
  -V(xc)+E(xc)   XCENC  =        23.96402945
  PAW double counting   =       502.34785863     -590.92071171
  entropy T*S    EENTRO =        -0.03384828
  eigenvalues    EBANDS =        -3.12803307
  atomic energy  EATOM  =       766.04200436
  Solvation  Ediel_sol  =         0.00000000
  ---------------------------------------------------
  free energy    TOTEN  =       171.47116754 eV

  energy without entropy =      171.50501583  energy(sigma->0) =      171.48809168


--------------------------------------------------------------------------------------------------------




--------------------------------------- Iteration      1(   2)  ---------------------------------------


     EDDAV:  cpu time      0.0903: real time      0.0919
       DOS:  cpu time      0.0003: real time      0.0003
    --------------------------------------------
      LOOP:  cpu time      0.0906: real time      0.0923

 eigenvalue-minimisations  :    24
 total energy-change (2. order) :-0.1474617E+03  (-0.1473010E+03)
 number of electron       7.0000000 magnetization 
 augmentation part        7.0000000 magnetization 

 Free energy of the ion-electron system (eV)
  ---------------------------------------------------
  alpha Z        PSCENC =         0.03245790
  Ewald energy   TEWEN  =       -47.43926195
  -Hartree energ DENC   =      -479.39332777
  -exchange      EXHF   =         0.00000000
  -V(xc)+E(xc)   XCENC  =        23.96402945
  PAW double counting   =       502.34785863     -590.92071171
  entropy T*S    EENTRO =        -0.02820948
  eigenvalues    EBANDS =      -150.59533282
  atomic energy  EATOM  =       766.04200436
  Solvation  Ediel_sol  =         0.00000000
  ---------------------------------------------------
  free energy    TOTEN  =        24.00950660 eV

  energy without entropy =       24.03771607  energy(sigma->0) =       24.02361134


--------------------------------------------------------------------------------------------------------




--------------------------------------- Iteration      1(   3)  ---------------------------------------


     EDDAV:  cpu time      0.0682: real time      0.0688
       DOS:  cpu time      0.0003: real time      0.0003
    --------------------------------------------
      LOOP:  cpu time      0.0685: real time      0.0691

 eigenvalue-minimisations  :    16
 total energy-change (2. order) :-0.2337075E+02  (-0.2337075E+02)
 number of electron       7.0000000 magnetization 
 augmentation part        7.0000000 magnetization 

 Free energy of the ion-electron system (eV)
  ---------------------------------------------------
  alpha Z        PSCENC =         0.03245790
  Ewald energy   TEWEN  =       -47.43926195
  -Hartree energ DENC   =      -479.39332777
  -exchange      EXHF   =         0.00000000
  -V(xc)+E(xc)   XCENC  =        23.96402945
  PAW double counting   =       502.34785863     -590.92071171
  entropy T*S    EENTRO =        -0.02820948
  eigenvalues    EBANDS =      -173.96608331
  atomic energy  EATOM  =       766.04200436
  Solvation  Ediel_sol  =         0.00000000
  ---------------------------------------------------
  free energy    TOTEN  =         0.63875611 eV

  energy without entropy =        0.66696559  energy(sigma->0) =        0.65286085


--------------------------------------------------------------------------------------------------------




--------------------------------------- Iteration      1(   4)  ---------------------------------------


     EDDAV:  cpu time      0.0676: real time      0.0682
       DOS:  cpu time      0.0003: real time      0.0004
    --------------------------------------------
      LOOP:  cpu time      0.0679: real time      0.0685

 eigenvalue-minimisations  :    16
 total energy-change (2. order) :-0.6643725E+00  (-0.6643725E+00)
 number of electron       7.0000000 magnetization 
 augmentation part        7.0000000 magnetization 

 Free energy of the ion-electron system (eV)
  ---------------------------------------------------
  alpha Z        PSCENC =         0.03245790
  Ewald energy   TEWEN  =       -47.43926195
  -Hartree energ DENC   =      -479.39332777
  -exchange      EXHF   =         0.00000000
  -V(xc)+E(xc)   XCENC  =        23.96402945
  PAW double counting   =       502.34785863     -590.92071171
  entropy T*S    EENTRO =        -0.02820948
  eigenvalues    EBANDS =      -174.63045581
  atomic energy  EATOM  =       766.04200436
  Solvation  Ediel_sol  =         0.00000000
  ---------------------------------------------------
  free energy    TOTEN  =        -0.02561639 eV

  energy without entropy =        0.00259309  energy(sigma->0) =       -0.01151165


--------------------------------------------------------------------------------------------------------




--------------------------------------- Iteration      1(   5)  ---------------------------------------


     EDDAV:  cpu time      0.0681: real time      0.0687
       DOS:  cpu time      0.0004: real time      0.0004
    CHARGE:  cpu time      0.0311: real time      0.0314
    MIXING:  cpu time      0.0090: real time      0.0091
    --------------------------------------------
      LOOP:  cpu time      0.1086: real time      0.1096

 eigenvalue-minimisations  :    16
 total energy-change (2. order) :-0.1012875E-01  (-0.1012875E-01)
 number of electron       7.0000002 magnetization 
 augmentation part        4.4637212 magnetization 

 Broyden mixing:
  rms(total) = 0.16999E-02    rms(broyden)= 0.15171E-02
  rms(prec ) = 0.15326E-02
  weight for this iteration     100.00
  WARNING: grid for Broyden might be to small

 Free energy of the ion-electron system (eV)
  ---------------------------------------------------
  alpha Z        PSCENC =         0.03245790
  Ewald energy   TEWEN  =       -47.43926195
  -Hartree energ DENC   =      -479.39332777
  -exchange      EXHF   =         0.00000000
  -V(xc)+E(xc)   XCENC  =        23.96402945
  PAW double counting   =       502.34785863     -590.92071171
  entropy T*S    EENTRO =        -0.02820948
  eigenvalues    EBANDS =      -174.64058456
  atomic energy  EATOM  =       766.04200436
  Solvation  Ediel_sol  =         0.00000000
  ---------------------------------------------------
  free energy    TOTEN  =        -0.03574514 eV

  energy without entropy =       -0.00753566  energy(sigma->0) =       -0.02164040


--------------------------------------------------------------------------------------------------------




--------------------------------------- Iteration      1(   6)  ---------------------------------------


    POTLOK:  cpu time      0.3266: real time      0.3291
    SETDIJ:  cpu time      0.0450: real time      0.0452
     EDDAV:  cpu time      0.0715: real time      0.0720
       DOS:  cpu time      0.0004: real time      0.0004
    CHARGE:  cpu time      0.0291: real time      0.0293
    MIXING:  cpu time      0.0096: real time      0.0096
    --------------------------------------------
      LOOP:  cpu time      0.4822: real time      0.4856

 eigenvalue-minimisations  :    16
 total energy-change (2. order) :-0.2403360E-03  (-0.2906599E-03)
 number of electron       7.0000002 magnetization 
 augmentation part        4.4641068 magnetization 

 Broyden mixing:
  rms(total) = 0.82817E-03    rms(broyden)= 0.80192E-03
  rms(prec ) = 0.81570E-03
  weight for this iteration     100.00

 eigenvalues of (default mixing * dielectric matrix)
  average eigenvalue GAMMA=   1.0836
  1.0836

 Free energy of the ion-electron system (eV)
  ---------------------------------------------------
  alpha Z        PSCENC =         0.03245790
  Ewald energy   TEWEN  =       -47.43926195
  -Hartree energ DENC   =      -479.38714490
  -exchange      EXHF   =         0.00000000
  -V(xc)+E(xc)   XCENC  =        23.96323339
  PAW double counting   =       502.04676349     -590.62014476
  entropy T*S    EENTRO =        -0.02820948
  eigenvalues    EBANDS =      -174.64568352
  atomic energy  EATOM  =       766.04200436
  Solvation  Ediel_sol  =         0.00000000
  ---------------------------------------------------
  free energy    TOTEN  =        -0.03598548 eV

  energy without entropy =       -0.00777600  energy(sigma->0) =       -0.02188074


--------------------------------------------------------------------------------------------------------




--------------------------------------- Iteration      1(   7)  ---------------------------------------


    POTLOK:  cpu time      0.3092: real time      0.3114
    SETDIJ:  cpu time      0.0447: real time      0.0449
     EDDAV:  cpu time      0.0934: real time      0.0942
       DOS:  cpu time      0.0004: real time      0.0004
    CHARGE:  cpu time      0.0296: real time      0.0299
    MIXING:  cpu time      0.0092: real time      0.0092
    --------------------------------------------
      LOOP:  cpu time      0.4864: real time      0.4900

 eigenvalue-minimisations  :    24
 total energy-change (2. order) :-0.2814968E-04  (-0.1300484E-04)
 number of electron       7.0000002 magnetization 
 augmentation part        4.4639786 magnetization 

 Broyden mixing:
  rms(total) = 0.52797E-03    rms(broyden)= 0.52353E-03
  rms(prec ) = 0.52971E-03
  weight for this iteration     100.00

 eigenvalues of (default mixing * dielectric matrix)
  average eigenvalue GAMMA=   1.2714
  1.2714  1.2714

 Free energy of the ion-electron system (eV)
  ---------------------------------------------------
  alpha Z        PSCENC =         0.03245790
  Ewald energy   TEWEN  =       -47.43926195
  -Hartree energ DENC   =      -479.39738017
  -exchange      EXHF   =         0.00000000
  -V(xc)+E(xc)   XCENC  =        23.96401544
  PAW double counting   =       502.01449603     -590.59509782
  entropy T*S    EENTRO =        -0.02820948
  eigenvalues    EBANDS =      -174.62903793
  atomic energy  EATOM  =       766.04200436
  Solvation  Ediel_sol  =         0.00000000
  ---------------------------------------------------
  free energy    TOTEN  =        -0.03601363 eV

  energy without entropy =       -0.00780415  energy(sigma->0) =       -0.02190889


--------------------------------------------------------------------------------------------------------




--------------------------------------- Iteration      1(   8)  ---------------------------------------


    POTLOK:  cpu time      0.3118: real time      0.3140
    SETDIJ:  cpu time      0.0452: real time      0.0454
     EDDAV:  cpu time      0.1007: real time      0.1015
       DOS:  cpu time      0.0004: real time      0.0004
    CHARGE:  cpu time      0.0297: real time      0.0299
    MIXING:  cpu time      0.0093: real time      0.0094
    --------------------------------------------
      LOOP:  cpu time      0.4970: real time      0.5006

 eigenvalue-minimisations  :    24
 total energy-change (2. order) :-0.1265837E-04  (-0.9385687E-07)
 number of electron       7.0000002 magnetization 
 augmentation part        4.4639589 magnetization 

 Broyden mixing:
  rms(total) = 0.24898E-03    rms(broyden)= 0.24855E-03
  rms(prec ) = 0.25164E-03
  weight for this iteration     100.00

 eigenvalues of (default mixing * dielectric matrix)
  average eigenvalue GAMMA=   1.5536
  2.4850  1.0879  1.0879

 Free energy of the ion-electron system (eV)
  ---------------------------------------------------
  alpha Z        PSCENC =         0.03245790
  Ewald energy   TEWEN  =       -47.43926195
  -Hartree energ DENC   =      -479.39995488
  -exchange      EXHF   =         0.00000000
  -V(xc)+E(xc)   XCENC  =        23.96427254
  PAW double counting   =       502.10941868     -590.69055626
  entropy T*S    EENTRO =        -0.02820948
  eigenvalues    EBANDS =      -174.62619719
  atomic energy  EATOM  =       766.04200436
  Solvation  Ediel_sol  =         0.00000000
  ---------------------------------------------------
  free energy    TOTEN  =        -0.03602629 eV

  energy without entropy =       -0.00781681  energy(sigma->0) =       -0.02192155


--------------------------------------------------------------------------------------------------------




--------------------------------------- Iteration      1(   9)  ---------------------------------------


    POTLOK:  cpu time      0.3147: real time      0.3172
    SETDIJ:  cpu time      0.0449: real time      0.0451
     EDDAV:  cpu time      0.0943: real time      0.0951
       DOS:  cpu time      0.0004: real time      0.0004
    --------------------------------------------
      LOOP:  cpu time      0.4543: real time      0.4577

 eigenvalue-minimisations  :    24
 total energy-change (2. order) :-0.5243035E-05  (-0.6404701E-07)
 number of electron       7.0000002 magnetization 
 augmentation part        4.4639589 magnetization 

 Free energy of the ion-electron system (eV)
  ---------------------------------------------------
  alpha Z        PSCENC =         0.03245790
  Ewald energy   TEWEN  =       -47.43926195
  -Hartree energ DENC   =      -479.40299290
  -exchange      EXHF   =         0.00000000
  -V(xc)+E(xc)   XCENC  =        23.96453708
  PAW double counting   =       502.19043835     -590.77193059
  entropy T*S    EENTRO =        -0.02820948
  eigenvalues    EBANDS =      -174.62307430
  atomic energy  EATOM  =       766.04200436
  Solvation  Ediel_sol  =         0.00000000
  ---------------------------------------------------
  free energy    TOTEN  =        -0.03603153 eV

  energy without entropy =       -0.00782205  energy(sigma->0) =       -0.02192679


--------------------------------------------------------------------------------------------------------




 average (electrostatic) potential at core
  the test charge radii are     0.9254
  (the norm of the test charge is              1.0000)
       1 -54.4479
 
 
 
 E-fermi :  -2.7249     XC(G=0):  -0.1829     alpha+bet : -0.0186

 Fermi energy:        -2.7248667502

 k-point     1 :       0.0000    0.0000    0.0000
  band No.  band energies     occupation 
      1     -28.6497      2.00000
      2     -28.6497      2.00000
      3     -28.6497      2.00000
      4      -2.7249      1.00000
      5      -0.7215      0.00000
      6      -0.7215      0.00000
      7      -0.7215      0.00000
      8      -0.1035      0.00000


--------------------------------------------------------------------------------------------------------


 soft charge-density along one line, spin component           1
         0         1         2         3         4         5         6         7         8         9
 total charge-density along one line
 
 pseudopotential strength for first ion, spin component:           1
-30.864  -0.000   0.000   5.245   0.000  -0.000   0.000   0.000
 -0.000 -30.864   0.000   0.000   5.245   0.000   0.000   0.000
  0.000   0.000 -30.864  -0.000   0.000   5.245   0.000   0.000
  5.245   0.000  -0.000   5.602  -0.000   0.000  -0.000  -0.000
  0.000   5.245   0.000  -0.000   5.602   0.000  -0.000  -0.000
 -0.000   0.000   5.245   0.000   0.000   5.602  -0.000  -0.000
  0.000   0.000   0.000  -0.000  -0.000  -0.000   1.415   7.117
  0.000   0.000   0.000  -0.000  -0.000  -0.000   7.117  35.239
 total augmentation occupancy for first ion, spin component:           1
  2.000   0.000   0.000  -0.000   0.000  -0.000   0.000  -0.000
  0.000   2.000   0.000   0.000  -0.000   0.000   0.000  -0.000
  0.000   0.000   2.000  -0.000   0.000  -0.000   0.000  -0.000
 -0.000   0.000  -0.000   0.000   0.000   0.000  -0.000   0.000
  0.000  -0.000   0.000   0.000   0.000  -0.000  -0.000  -0.000
 -0.000   0.000  -0.000   0.000  -0.000   0.000  -0.000  -0.000
  0.000   0.000   0.000  -0.000  -0.000  -0.000   0.996   0.001
 -0.000  -0.000  -0.000   0.000  -0.000  -0.000   0.001   0.000


------------------------ aborting loop because EDIFF is reached ----------------------------------------


    CHARGE:  cpu time      0.0296: real time      0.0299
    FORLOC:  cpu time      0.0053: real time      0.0053
    FORNL :  cpu time      0.0009: real time      0.0009
    STRESS:  cpu time      0.0242: real time      0.0245
    FORCOR:  cpu time      0.3078: real time      0.3100
    FORHAR:  cpu time      0.0727: real time      0.0732
    MIXING:  cpu time      0.0094: real time      0.0095
    OFIELD:  cpu time      0.0000: real time      0.0000

  FORCE on cell =-STRESS in cart. coord.  units (eV):
  Direction    XX          YY          ZZ          XY          YZ          ZX
  --------------------------------------------------------------------------------------
  Alpha Z     0.03246     0.03246     0.03246
  Ewald     -15.58474   -15.81323   -16.04130     0.00000     0.00000     0.00000
  Hartree   160.02780   159.80169   159.57598     0.00001    -0.00000     0.00001
  E(xc)     -37.18110   -37.18110   -37.18110     0.00000    -0.00000     0.00000
  Local    -175.01944  -174.56482  -174.11105    -0.00002     0.00000    -0.00001
  n-local   -22.46383   -22.46382   -22.46380    -0.00000    -0.00000    -0.00000
  augment    42.02724    42.02701    42.02697     0.00000    -0.00000     0.00000
  Kinetic    48.15856    48.15855    48.15855    -0.00000     0.00000     0.00000
  Fock        0.00000     0.00000     0.00000     0.00000     0.00000     0.00000
  -------------------------------------------------------------------------------------
  Total      -0.00306    -0.00326    -0.00328    -0.00000    -0.00000    -0.00000
  in kB      -0.00052    -0.00056    -0.00056    -0.00000    -0.00000    -0.00000
  external pressure =       -0.00 kB  Pullay stress =        0.00 kB


 VOLUME and BASIS-vectors are now :
 -----------------------------------------------------------------------------
  energy-cutoff  :      520.00
  volume of cell :     9393.72
      direct lattice vectors                 reciprocal lattice vectors
    21.000000000  0.000000000  0.000000000     0.047619048 -0.000000000  0.000000000
     0.000000000 21.100000000  0.000000000     0.000000000  0.047393365  0.000000000
     0.000000000  0.000000000 21.200000000    -0.000000000 -0.000000000  0.047169811

  length of vectors
    21.000000000 21.100000000 21.200000000     0.047619048  0.047393365  0.047169811


 FORCES acting on ions
    electron-ion (+dipol)            ewald-force                    non-local-force                 convergence-correction
 -----------------------------------------------------------------------------------------------
   0.375E-03 0.236E-03 0.561E-03   0.133E-16 -.104E-16 0.897E-17   0.809E-03 0.498E-03 0.116E-02   -.117E-02 -.730E-03 -.170E-02
 -----------------------------------------------------------------------------------------------
   0.375E-03 0.236E-03 0.561E-03   0.133E-16 -.104E-16 0.897E-17   0.809E-03 0.498E-03 0.116E-02   -.117E-02 -.730E-03 -.170E-02
 
 
 POSITION                                       TOTAL-FORCE (eV/Angst)
 -----------------------------------------------------------------------------------
      0.00000      0.00000      0.00000         0.000010      0.000004      0.000016
 -----------------------------------------------------------------------------------
    total drift:                                0.000010      0.000004      0.000016


--------------------------------------------------------------------------------------------------------



  FREE ENERGIE OF THE ION-ELECTRON SYSTEM (eV)
  ---------------------------------------------------
  free  energy   TOTEN  =        -0.03603153 eV

  energy  without entropy=       -0.00782205  energy(sigma->0) =       -0.02192679
 


--------------------------------------------------------------------------------------------------------


    POTLOK:  cpu time      0.3784: real time      0.3809


--------------------------------------------------------------------------------------------------------


     LOOP+:  cpu time      3.5680: real time      3.5978
    4ORBIT:  cpu time      0.0000: real time      0.0000

 total amount of memory used by VASP MPI-rank0    80487. kBytes
=======================================================================

   base      :      30000. kBytes
   nonl-proj :        314. kBytes
   fftplans  :      20109. kBytes
   grid      :      29811. kBytes
   one-center:          1. kBytes
   wavefun   :        252. kBytes
 
  
  
 General timing and accounting informations for this job:
 ========================================================
  
                  Total CPU time used (sec):        6.796
                            User time (sec):        6.064
                          System time (sec):        0.732
                         Elapsed time (sec):        7.380
  
                   Maximum memory used (kb):      475840.
                   Average memory used (kb):          N/A
  
                          Minor page faults:        50847
                          Major page faults:           48
                 Voluntary context switches:         1180
