 vasp.6.4.2 20Jul23 (build Aug 07 2024 12:45:50) gamma-only                     
  
 executed on             LinuxIFC date 2026.09.30  12:21:11
 running   64 mpi-ranks, on    1 nodes
 distrk:  each k-point on   64 cores,    1 groups
 distr:  one band on NCORE=  32 cores,    2 groups


--------------------------------------------------------------------------------------------------------


 INCAR:
   ALGO = Normal
   EDIFF = 1e-05
   EFERMI = Midgap
   ENCUT = 520.0
   GGA = Pe
   GGA_COMPAT = False
   IBRION = -1
   ISMEAR = 0
   ISPIN = 2
   ISYM = 0
   LAECHG = False
   LASPH = True
   LCHARG = False
   LMAXMIX = 6
   LMIXTAU = True
   LREAL = False
   LWAVE = False
   MAGMOM = 1*3.0
   NCORE = 32
   NELM = 400
   NSW = 0
   PREC = Accurate
   SIGMA = 0.05
   SYSTEM = P_atom_ispin2

 POTCAR:    PAW_PBE P 06Sep2000                   
 -----------------------------------------------------------------------------
|                                                                             |
|           W    W    AA    RRRRR   N    N  II  N    N   GGGG   !!!           |
|           W    W   A  A   R    R  NN   N  II  NN   N  G    G  !!!           |
|           W    W  A    A  R    R  N N  N  II  N N  N  G       !!!           |
|           W WW W  AAAAAA  RRRRR   N  N N  II  N  N N  G  GGG   !            |
|           WW  WW  A    A  R   R   N   NN  II  N   NN  G    G                |
|           W    W  A    A  R    R  N    N  II  N    N   GGGG   !!!           |
|                                                                             |
|     For optimal performance we recommend to set                             |
|       NCORE = 2 up to number-of-cores-per-socket                            |
|     NCORE specifies how many cores store one orbital (NPAR=cpu/NCORE).      |
|     This setting can greatly improve the performance of VASP for DFT.       |
|     The default, NCORE=1 might be grossly inefficient on modern             |
|     multi-core architectures or massively parallel machines. Do your        |
|     own testing! More info at https://www.vasp.at/wiki/index.php/NCORE      |
|     Unfortunately you need to use the default for GW and RPA                |
|     calculations (for HF NCORE is supported but not extensively tested      |
|     yet).                                                                   |
|                                                                             |
 -----------------------------------------------------------------------------

 POTCAR:    PAW_PBE P 06Sep2000                   
   SHA256 =  df60c54a93efe35c9e85ae94c010c75e9f6960a95d5595d7cdba4096d109af88 P/POTCAR              
   COPYR  = (c) Copyright 06Sep2000 Georg Kresse                                                    
   COPYR  = This file is part of the software VASP. Any use, copying, and all other rights are regul
   COPYR  = If you do not have a valid VASP license, you may not use, copy or distribute this file. 
   VRHFIN =P : s2p3                                                                                 
   LEXCH  = PE                                                                                      
   EATOM  =   176.0430 eV,   12.9388 Ry                                                             
                                                                                                    
   TITEL  = PAW_PBE P 06Sep2000                                                                     
   LULTRA =        F    use ultrasoft PP ?                                                          
   IUNSCR =        1    unscreen: 0-lin 1-nonlin 2-no                                               
   RPACOR =    1.500    partial core radius                                                         
   POMASS =   30.974; ZVAL   =    5.000    mass and valenz                                          
   RCORE  =    1.900    outmost cutoff radius                                                       
   RWIGS  =    2.330; RWIGS  =    1.233    wigner-seitz radius (au A)                               
   ENMAX  =  255.040; ENMIN  =  191.280 eV                                                          
   ICORE  =        2    local potential                                                             
   LCOR   =        T    correct aug charges                                                         
   LPAW   =        T    paw PP                                                                      
   EAUG   =  342.924                                                                                
   DEXC   =    0.000                                                                                
   RMAX   =    1.935    core radius for proj-oper                                                   
   RAUG   =    1.300    factor for augmentation sphere                                              
   RDEP   =    1.931    radius for radial grids                                                     
   RDEPT  =    1.794    core radius for aug-charge                                                  
                                                                                                    
   Atomic configuration                                                                             
    6 entries                                                                                       
     n  l   j            E        occ.                                                              
     1  0  0.50     -2084.0982   2.0000                                                             
     2  0  0.50      -173.9859   2.0000                                                             
     2  1  1.50      -124.4865   6.0000                                                             
     3  0  0.50       -13.9692   2.0000                                                             
     3  1  0.50        -5.5067   3.0000                                                             
     3  2  1.50        -5.4423   0.0000                                                             
   Description                                                                                      
     l       E           TYP  RCUT    TYP  RCUT                                                     
     0    -13.9691527     23  1.900                                                                 
     0    -11.7794650     23  1.900                                                                 
     1     -5.5066937     23  1.900                                                                 
     1     -0.2556953     23  1.900                                                                 
     2     -5.4423304     23  1.900                                                                 
  local pseudopotential read in
  partial core-charges read in
  partial kinetic energy density read in
  atomic valenz-charges read in
  non local Contribution for L=           0  read in
    real space projection operators read in
  non local Contribution for L=           0  read in
    real space projection operators read in
  non local Contribution for L=           1  read in
    real space projection operators read in
  non local Contribution for L=           1  read in
    real space projection operators read in
    PAW grid and wavefunctions read in
 
   number of l-projection  operators is LMAX  =           4
   number of lm-projection operators is LMMAX =           8
 
  PAW_PBE P 06Sep2000                   :
 energy of atom  1       EATOM= -176.0430
 kinetic energy error for atom=    0.0011 (will be added to EATOM!!)
 
 
 POSCAR: P1
  positions in direct lattice
  No initial velocities read in
 exchange correlation table for  LEXCH =        8
   RHO(1)=    0.500       N(1)  =     2000
   RHO(2)=  100.500       N(2)  =     4000
 


--------------------------------------------------------------------------------------------------------


 ion  position               nearest neighbor table
   1  0.000  0.000  0.000-
 

IMPORTANT INFORMATION: All symmetrisations will be switched off!
NOSYMM: (Re-)initialisation of all symmetry stuff for point group C_1.


----------------------------------------------------------------------------------------

                                     Primitive cell                                     

  volume of cell :    3442.8000

  direct lattice vectors                    reciprocal lattice vectors
    15.000000000  0.000000000  0.000000000     0.066666667 -0.000000000  0.000000000
     0.000000000 15.100000000  0.000000000     0.000000000  0.066225166  0.000000000
     0.000000000  0.000000000 15.200000000    -0.000000000 -0.000000000  0.065789474

  length of vectors
    15.000000000 15.100000000 15.200000000     0.066666667  0.066225166  0.065789474

  position of ions in fractional coordinates (direct lattice)
     0.000000000  0.000000000  0.000000000

  ion indices of the primitive-cell ions
   primitive index   ion index
                 1           1

----------------------------------------------------------------------------------------

 
 
 KPOINTS: Automatic kpoint scheme                 

Automatic generation of k-mesh.
 Grid dimensions read from file:
 generate k-points for:    1    1    1

 Generating k-lattice:

  Cartesian coordinates                     Fractional coordinates (reciprocal lattice)
     0.066666667 -0.000000000  0.000000000     1.000000000 -0.000000000  0.000000000
     0.000000000  0.066225166  0.000000000     0.000000000  1.000000000  0.000000000
    -0.000000000 -0.000000000  0.065789474     0.000000000 -0.000000000  1.000000000

  Length of vectors
     0.066666667  0.066225166  0.065789474

  Shift w.r.t. Gamma in fractional coordinates (k-lattice)
     0.000000000  0.000000000  0.000000000

 
 Subroutine IBZKPT returns following result:
 ===========================================
 
 Found      1 irreducible k-points:
 
 Following reciprocal coordinates:
            Coordinates               Weight
  0.000000  0.000000  0.000000      1.000000
 
 Following cartesian coordinates:
            Coordinates               Weight
  0.000000  0.000000  0.000000      1.000000
 


--------------------------------------------------------------------------------------------------------




 Dimension of arrays:
   k-points           NKPTS =      1   k-points in BZ     NKDIM =      1   number of bands    NBANDS=      8
   number of dos      NEDOS =    301   number of ions     NIONS =      1
   non local maximal  LDIM  =      4   non local SUM 2l+1 LMDIM =      8
   total plane-waves  NPLWV = ******
   max r-space proj   IRMAX =      1   max aug-charges    IRDMAX=  13504
   dimension x,y,z NGX =   112 NGY =  112 NGZ =  120
   dimension x,y,z NGXF=   224 NGYF=  224 NGZF=  240
   support grid    NGXF=   224 NGYF=  224 NGZF=  240
   ions per type =               1
   NGX,Y,Z   is equivalent  to a cutoff of  12.41, 12.33, 13.12 a.u.
   NGXF,Y,Z  is equivalent  to a cutoff of  24.83, 24.66, 26.25 a.u.

 SYSTEM =  P_atom_ispin2                           
 POSCAR =  P1                                      

 Startparameter for this run:
   NWRITE =      2    write-flag & timer
   PREC   = accura    normal or accurate (medium, high low for compatibility)
   ISTART =      0    job   : 0-new  1-cont  2-samecut
   ICHARG =      2    charge: 1-file 2-atom 10-const
   ISPIN  =      2    spin polarized calculation?
   LNONCOLLINEAR =      F non collinear calculations
   LSORBIT =      F    spin-orbit coupling
   INIWAV =      1    electr: 0-lowe 1-rand  2-diag
   LASPH  =      T    aspherical Exc in radial PAW
 Electronic Relaxation 1
   ENCUT  =  520.0 eV  38.22 Ry    6.18 a.u.  27.89 28.08 28.26*2*pi/ulx,y,z
   ENINI  =  520.0     initial cutoff
   ENAUG  =  342.9 eV  augmentation charge cutoff
   NELM   =    400;   NELMIN=  2; NELMDL= -5     # of ELM steps 
   EDIFF  = 0.1E-04   stopping-criterion for ELM
   LREAL  =      F    real-space projection
   NLSPLINE    = F    spline interpolate recip. space projectors
   LCOMPAT=      F    compatible to vasp.4.4
   GGA_COMPAT  = F    GGA compatible to vasp.4.4-vasp.4.6
   LMAXPAW     = -100 max onsite density
   LMAXMIX     =    6 max onsite mixed and CHGCAR
   VOSKOWN=      0    Vosko Wilk Nusair interpolation
   ROPT   =    0.00000
 Ionic relaxation
   EDIFFG = 0.1E-03   stopping-criterion for IOM
   NSW    =      0    number of steps for IOM
   NBLOCK =      1;   KBLOCK =      1    inner block; outer block 
   IBRION =     -1    ionic relax: 0-MD 1-quasi-New 2-CG
   NFREE  =      0    steps in history (QN), initial steepest desc. (CG)
   ISIF   =      2    stress and relaxation
   IWAVPR =     10    prediction:  0-non 1-charg 2-wave 3-comb
   ISYM   =      0    0-nonsym 1-usesym 2-fastsym
   LCORR  =      T    Harris-Foulkes like correction to forces

   POTIM  = 0.5000    time-step for ionic-motion
   TEIN   =    0.0    initial temperature
   TEBEG  =    0.0;   TEEND  =   0.0 temperature during run
   SMASS  =  -3.00    Nose mass-parameter (am)
   estimated Nose-frequenzy (Omega)   =  0.10E-29 period in steps = 0.13E+47 mass=  -0.514E-26a.u.
   SCALEE = 1.0000    scale energy and forces
   NPACO  =    256;   APACO  = 10.0  distance and # of slots for P.C.
   PSTRESS=    0.0 pullay stress

  Mass of Ions in am
   POMASS =  30.97
  Ionic Valenz
   ZVAL   =   5.00
  Atomic Wigner-Seitz radii
   RWIGS  =  -1.00
  virtual crystal weights 
   VCA    =   1.00
   NELECT =       5.0000    total number of electrons
   NUPDOWN=      -1.0000    fix difference up-down

 DOS related values:
   EMIN   =  10.00;   EMAX   =-10.00  energy-range for DOS
   EFERMI =   0.00;   METHOD = MIDGAP      
   ISMEAR =     0;   SIGMA  =   0.05  broadening in eV -4-tet -1-fermi 0-gaus

 Electronic relaxation 2 (details)
   IALGO  =     38    algorithm
   LDIAG  =      T    sub-space diagonalisation (order eigenvalues)
   LSUBROT=      F    optimize rotation matrix (better conditioning)
   TURBO    =      0    0=normal 1=particle mesh
   IRESTART =      0    0=no restart 2=restart with 2 vectors
   NREBOOT  =      0    no. of reboots
   NMIN     =      0    reboot dimension
   EREF     =   0.00    reference energy to select bands
   IMIX   =      4    mixing-type and parameters
     AMIX     =   0.40;   BMIX     =  1.00
     AMIX_MAG =   1.60;   BMIX_MAG =  1.00
     AMIN     =   0.10
     WC   =   100.;   INIMIX=   1;  MIXPRE=   1;  MAXMIX= -45

 Intra band minimization:
   WEIMIN = 0.0000     energy-eigenvalue tresh-hold
   EBREAK =  0.31E-06  absolut break condition
   DEPER  =   0.30     relativ break condition  

   TIME   =   0.40     timestep for ELM

  volume/ion in A,a.u.               =    3442.80     23233.16
  Fermi-wavevector in a.u.,A,eV,Ry     =   0.185393  0.350343  0.467642  0.034371
  Thomas-Fermi vector in A             =   0.918123
 
 Write flags
   LWAVE        =      F    write WAVECAR
   LDOWNSAMPLE  =      F    k-point downsampling of WAVECAR
   LCHARG       =      F    write CHGCAR
   LVTOT        =      F    write LOCPOT, total local potential
   LVHAR        =      F    write LOCPOT, Hartree potential only
   LELF         =      F    write electronic localiz. function (ELF)
   LORBIT       =      0    0 simple, 1 ext, 2 COOP (PROOUT), +10 PAW based schemes


 Dipole corrections
   LMONO  =      F    monopole corrections only (constant potential shift)
   LDIPOL =      F    correct potential (dipole corrections)
   IDIPOL =      0    1-x, 2-y, 3-z, 4-all directions 
   EPSILON=  1.0000000 bulk dielectric constant

 Exchange correlation treatment:
   GGA     =    PE    GGA type
   LEXCH   =     8    internal setting for exchange type
   LIBXC   =     F    Libxc                    
   VOSKOWN =     0    Vosko Wilk Nusair interpolation
   LHFCALC =     F    Hartree Fock is set to
   LHFONE  =     F    Hartree Fock one center treatment
   AEXX    =    0.0000 exact exchange contribution

 Linear response parameters
   LEPSILON=     F    determine dielectric tensor
   LRPA    =     F    only Hartree local field effects (RPA)
   LNABLA  =     F    use nabla operator in PAW spheres
   LVEL    =     F    velocity operator in full k-point grid
   CSHIFT  =0.1000    complex shift for real part using Kramers Kronig
   OMEGAMAX=  -1.0    maximum frequency
   DEG_THRESHOLD= 0.2000000E-02 threshold for treating states as degnerate
   RTIME   =   -0.100 relaxation time in fs
  (WPLASMAI=    0.000 imaginary part of plasma frequency in eV, 0.658/RTIME)
   DFIELD  = 0.0000000 0.0000000 0.0000000 field for delta impulse in time
 
  Optional k-point grid parameters
   LKPOINTS_OPT  =     F    use optional k-point grid
   KPOINTS_OPT_MODE=     1    mode for optional k-point grid
 
 Orbital magnetization related:
   ORBITALMAG=     F  switch on orbital magnetization
   LCHIMAG   =     F  perturbation theory with respect to B field
   DQ        =  0.001000  dq finite difference perturbation B field
   LLRAUG    =     F  two centre corrections for induced B field
   LBONE     =     F  B-component reconstruction in AE one-centre
   LVGVCALC  =     T  calculate vGv susceptibility
   LVGVAPPL  =     F  apply vGv susceptibility instead of pGv for G=0

 Random number generation:
   RANDOM_GENERATOR = DEFAULT
   PCG_SEED         = not used


--------------------------------------------------------------------------------------------------------


 Static calculation
 charge density and potential will be updated during run
 spin polarized calculation
 Variant of blocked Davidson
 Davidson routine will perform the subspace rotation
 perform sub-space diagonalisation
    after iterative eigenvector-optimisation
 modified Broyden-mixing scheme, WC =      100.0
 initial mixing is a Kerker type mixing with AMIX =  0.4000 and BMIX =      1.0000
 Hartree-type preconditioning will be used
 using additional bands            5
 reciprocal scheme for non local part
 use partial core corrections
 calculate Harris-corrections to forces 
   (improved forces if not selfconsistent)
 use gradient corrections 
 use of overlap-Matrix (Vanderbilt PP)
 Gauss-broadening in eV      SIGMA  =   0.05


--------------------------------------------------------------------------------------------------------


  energy-cutoff  :      520.00
  volume of cell :     3442.80
      direct lattice vectors                 reciprocal lattice vectors
    15.000000000  0.000000000  0.000000000     0.066666667 -0.000000000  0.000000000
     0.000000000 15.100000000  0.000000000     0.000000000  0.066225166  0.000000000
     0.000000000  0.000000000 15.200000000    -0.000000000 -0.000000000  0.065789474

  length of vectors
    15.000000000 15.100000000 15.200000000     0.066666667  0.066225166  0.065789474


 
 k-points in units of 2pi/SCALE and weight: Automatic kpoint scheme                 
   0.00000000  0.00000000  0.00000000       1.000
 
 k-points in reciprocal lattice and weights: Automatic kpoint scheme                 
   0.00000000  0.00000000  0.00000000       1.000
 
 position of ions in fractional coordinates (direct lattice) 
   0.00000000  0.00000000  0.00000000
 
 position of ions in cartesian coordinates  (Angst):
   0.00000000  0.00000000  0.00000000
 


--------------------------------------------------------------------------------------------------------


 use parallel FFT for orbitals z direction half grid
 k-point   1 :   0.0000 0.0000 0.0000  plane waves:   46338

 maximum and minimum number of plane-waves per node :      1457     1434

 maximum number of plane-waves:     46338
 maximum index in each direction: 
   IXMAX=   27   IYMAX=   28   IZMAX=   28
   IXMIN=  -27   IYMIN=  -28   IZMIN=    0


 parallel 3D FFT for wavefunctions:
    minimum data exchange during FFTs selected (reduces bandwidth)
 parallel 3D FFT for charge:
    minimum data exchange during FFTs selected (reduces bandwidth)


 total amount of memory used by VASP MPI-rank0    58360. kBytes
=======================================================================

   base      :      30000. kBytes
   nonl-proj :        116. kBytes
   fftplans  :       8156. kBytes
   grid      :      19898. kBytes
   one-center:          3. kBytes
   wavefun   :        187. kBytes
 
     INWAV:  cpu time      0.0000: real time      0.0003
 Broyden mixing: mesh for mixing (old mesh)
   NGX = 55   NGY = 57   NGZ = 57
  (NGX  =224   NGY  =224   NGZ  =240)
  gives a total of 178695 points

 initial charge density was supplied:
 charge density of overlapping atoms calculated
 number of electron       5.0000000 magnetization       3.0000000
 keeping initial charge density in first step


--------------------------------------------------------------------------------------------------------


 Maximum index for augmentation-charges          679 (set IRDMAX)


--------------------------------------------------------------------------------------------------------


 First call to EWALD:  gamma=   0.117
 Maximum number of real-space cells 3x 3x 3
 Maximum number of reciprocal cells 3x 3x 3

    FEWALD:  cpu time      0.0010: real time      0.0010


--------------------------------------- Ionic step        1  -------------------------------------------




--------------------------------------- Iteration      1(   1)  ---------------------------------------


    POTLOK:  cpu time      0.3226: real time      0.3249
    SETDIJ:  cpu time      0.2045: real time      0.2055
     EDDAV:  cpu time      0.0413: real time      0.0417
       DOS:  cpu time      0.0004: real time      0.0004
    --------------------------------------------
      LOOP:  cpu time      0.5688: real time      0.5726

 eigenvalue-minimisations  :    32
 total energy-change (2. order) : 0.2167719E+02  (-0.6030121E+02)
 number of electron       5.0000000 magnetization       3.0000000
 augmentation part        5.0000000 magnetization       3.0000000

 Free energy of the ion-electron system (eV)
  ---------------------------------------------------
  alpha Z        PSCENC =         0.02912166
  Ewald energy   TEWEN  =       -33.82057776
  -Hartree energ DENC   =      -107.92284029
  -exchange      EXHF   =         0.00000000
  -V(xc)+E(xc)   XCENC  =         2.35280270
  PAW double counting   =       139.04002766     -130.73895497
  entropy T*S    EENTRO =        -0.02502993
  eigenvalues    EBANDS =       -23.27930118
  atomic energy  EATOM  =       176.04194641
  Solvation  Ediel_sol  =         0.00000000
  ---------------------------------------------------
  free energy    TOTEN  =        21.67719430 eV

  energy without entropy =       21.70222423  energy(sigma->0) =       21.68970927


--------------------------------------------------------------------------------------------------------




--------------------------------------- Iteration      1(   2)  ---------------------------------------


     EDDAV:  cpu time      0.0649: real time      0.0669
       DOS:  cpu time      0.0002: real time      0.0002
    --------------------------------------------
      LOOP:  cpu time      0.0651: real time      0.0671

 eigenvalue-minimisations  :    64
 total energy-change (2. order) :-0.1247139E+02  (-0.1166317E+02)
 number of electron       5.0000000 magnetization       3.0000000
 augmentation part        5.0000000 magnetization       3.0000000

 Free energy of the ion-electron system (eV)
  ---------------------------------------------------
  alpha Z        PSCENC =         0.02912166
  Ewald energy   TEWEN  =       -33.82057776
  -Hartree energ DENC   =      -107.92284029
  -exchange      EXHF   =         0.00000000
  -V(xc)+E(xc)   XCENC  =         2.35280270
  PAW double counting   =       139.04002766     -130.73895497
  entropy T*S    EENTRO =        -0.00288257
  eigenvalues    EBANDS =       -35.77283471
  atomic energy  EATOM  =       176.04194641
  Solvation  Ediel_sol  =         0.00000000
  ---------------------------------------------------
  free energy    TOTEN  =         9.20580814 eV

  energy without entropy =        9.20869071  energy(sigma->0) =        9.20724943


--------------------------------------------------------------------------------------------------------




--------------------------------------- Iteration      1(   3)  ---------------------------------------


     EDDAV:  cpu time      0.0514: real time      0.0518
       DOS:  cpu time      0.0002: real time      0.0002
    --------------------------------------------
      LOOP:  cpu time      0.0515: real time      0.0520

 eigenvalue-minimisations  :    48
 total energy-change (2. order) :-0.1042189E+02  (-0.1038772E+02)
 number of electron       5.0000000 magnetization       3.0000000
 augmentation part        5.0000000 magnetization       3.0000000

 Free energy of the ion-electron system (eV)
  ---------------------------------------------------
  alpha Z        PSCENC =         0.02912166
  Ewald energy   TEWEN  =       -33.82057776
  -Hartree energ DENC   =      -107.92284029
  -exchange      EXHF   =         0.00000000
  -V(xc)+E(xc)   XCENC  =         2.35280270
  PAW double counting   =       139.04002766     -130.73895497
  entropy T*S    EENTRO =        -0.00000000
  eigenvalues    EBANDS =       -46.19761026
  atomic energy  EATOM  =       176.04194641
  Solvation  Ediel_sol  =         0.00000000
  ---------------------------------------------------
  free energy    TOTEN  =        -1.21608485 eV

  energy without entropy =       -1.21608485  energy(sigma->0) =       -1.21608485


--------------------------------------------------------------------------------------------------------




--------------------------------------- Iteration      1(   4)  ---------------------------------------


     EDDAV:  cpu time      0.0358: real time      0.0360
       DOS:  cpu time      0.0002: real time      0.0002
    --------------------------------------------
      LOOP:  cpu time      0.0359: real time      0.0362

 eigenvalue-minimisations  :    32
 total energy-change (2. order) :-0.6361524E+00  (-0.6361524E+00)
 number of electron       5.0000000 magnetization       3.0000000
 augmentation part        5.0000000 magnetization       3.0000000

 Free energy of the ion-electron system (eV)
  ---------------------------------------------------
  alpha Z        PSCENC =         0.02912166
  Ewald energy   TEWEN  =       -33.82057776
  -Hartree energ DENC   =      -107.92284029
  -exchange      EXHF   =         0.00000000
  -V(xc)+E(xc)   XCENC  =         2.35280270
  PAW double counting   =       139.04002766     -130.73895497
  entropy T*S    EENTRO =        -0.00000000
  eigenvalues    EBANDS =       -46.83376265
  atomic energy  EATOM  =       176.04194641
  Solvation  Ediel_sol  =         0.00000000
  ---------------------------------------------------
  free energy    TOTEN  =        -1.85223724 eV

  energy without entropy =       -1.85223724  energy(sigma->0) =       -1.85223724


--------------------------------------------------------------------------------------------------------




--------------------------------------- Iteration      1(   5)  ---------------------------------------


     EDDAV:  cpu time      0.1024: real time      0.1031
       DOS:  cpu time      0.0002: real time      0.0002
    CHARGE:  cpu time      0.0243: real time      0.0245
    MIXING:  cpu time      0.0038: real time      0.0039
    --------------------------------------------
      LOOP:  cpu time      0.1307: real time      0.1316

 eigenvalue-minimisations  :    64
 total energy-change (2. order) :-0.7147592E-02  (-0.7147592E-02)
 number of electron       4.9999998 magnetization       3.0000000
 augmentation part       -0.5692953 magnetization      -0.1207218

 Broyden mixing:
  rms(total) = 0.12750E+00    rms(broyden)= 0.12750E+00
  rms(prec ) = 0.13142E+00
  weight for this iteration     100.00

 Free energy of the ion-electron system (eV)
  ---------------------------------------------------
  alpha Z        PSCENC =         0.02912166
  Ewald energy   TEWEN  =       -33.82057776
  -Hartree energ DENC   =      -107.92284029
  -exchange      EXHF   =         0.00000000
  -V(xc)+E(xc)   XCENC  =         2.35280270
  PAW double counting   =       139.04002766     -130.73895497
  entropy T*S    EENTRO =        -0.00000000
  eigenvalues    EBANDS =       -46.84091024
  atomic energy  EATOM  =       176.04194641
  Solvation  Ediel_sol  =         0.00000000
  ---------------------------------------------------
  free energy    TOTEN  =        -1.85938483 eV

  energy without entropy =       -1.85938483  energy(sigma->0) =       -1.85938483


--------------------------------------------------------------------------------------------------------




--------------------------------------- Iteration      1(   6)  ---------------------------------------


    POTLOK:  cpu time      0.3271: real time      0.3293
    SETDIJ:  cpu time      0.2046: real time      0.2056
     EDDAV:  cpu time      0.0389: real time      0.0392
       DOS:  cpu time      0.0002: real time      0.0002
    CHARGE:  cpu time      0.0216: real time      0.0218
    MIXING:  cpu time      0.0040: real time      0.0041
    --------------------------------------------
      LOOP:  cpu time      0.5964: real time      0.6001

 eigenvalue-minimisations  :    32
 total energy-change (2. order) :-0.2042566E-01  (-0.9320683E-02)
 number of electron       4.9999998 magnetization       3.0000000
 augmentation part       -0.5632961 magnetization      -0.1101079

 Broyden mixing:
  rms(total) = 0.66174E-01    rms(broyden)= 0.66173E-01
  rms(prec ) = 0.67344E-01
  weight for this iteration     100.00

 eigenvalues of (default mixing * dielectric matrix)
  average eigenvalue GAMMA=   0.8065
  0.8065

 Free energy of the ion-electron system (eV)
  ---------------------------------------------------
  alpha Z        PSCENC =         0.02912166
  Ewald energy   TEWEN  =       -33.82057776
  -Hartree energ DENC   =      -108.59213602
  -exchange      EXHF   =         0.00000000
  -V(xc)+E(xc)   XCENC  =         2.41555026
  PAW double counting   =       135.61449528     -127.43494673
  entropy T*S    EENTRO =        -0.00000000
  eigenvalues    EBANDS =       -46.13326360
  atomic energy  EATOM  =       176.04194641
  Solvation  Ediel_sol  =         0.00000000
  ---------------------------------------------------
  free energy    TOTEN  =        -1.87981049 eV

  energy without entropy =       -1.87981049  energy(sigma->0) =       -1.87981049


--------------------------------------------------------------------------------------------------------




--------------------------------------- Iteration      1(   7)  ---------------------------------------


    POTLOK:  cpu time      0.4059: real time      0.4085
    SETDIJ:  cpu time      0.2053: real time      0.2063
     EDDAV:  cpu time      0.0444: real time      0.0447
       DOS:  cpu time      0.0002: real time      0.0002
    CHARGE:  cpu time      0.0211: real time      0.0213
    MIXING:  cpu time      0.0039: real time      0.0039
    --------------------------------------------
      LOOP:  cpu time      0.6808: real time      0.6849

 eigenvalue-minimisations  :    40
 total energy-change (2. order) :-0.4837723E-02  (-0.4286914E-03)
 number of electron       4.9999998 magnetization       3.0000000
 augmentation part       -0.5629717 magnetization      -0.1111789

 Broyden mixing:
  rms(total) = 0.32601E-01    rms(broyden)= 0.32601E-01
  rms(prec ) = 0.33686E-01
  weight for this iteration     100.00

 eigenvalues of (default mixing * dielectric matrix)
  average eigenvalue GAMMA=   0.9077
  1.0391  0.7762

 Free energy of the ion-electron system (eV)
  ---------------------------------------------------
  alpha Z        PSCENC =         0.02912166
  Ewald energy   TEWEN  =       -33.82057776
  -Hartree energ DENC   =      -108.81049920
  -exchange      EXHF   =         0.00000000
  -V(xc)+E(xc)   XCENC  =         2.40207283
  PAW double counting   =       152.55004403     -144.33885327
  entropy T*S    EENTRO =        -0.00000000
  eigenvalues    EBANDS =       -45.93790293
  atomic energy  EATOM  =       176.04194641
  Solvation  Ediel_sol  =         0.00000000
  ---------------------------------------------------
  free energy    TOTEN  =        -1.88464821 eV

  energy without entropy =       -1.88464821  energy(sigma->0) =       -1.88464821


--------------------------------------------------------------------------------------------------------




--------------------------------------- Iteration      1(   8)  ---------------------------------------


    POTLOK:  cpu time      0.3267: real time      0.3290
    SETDIJ:  cpu time      0.2047: real time      0.2057
     EDDAV:  cpu time      0.0451: real time      0.0455
       DOS:  cpu time      0.0002: real time      0.0002
    CHARGE:  cpu time      0.0218: real time      0.0219
    MIXING:  cpu time      0.0041: real time      0.0042
    --------------------------------------------
      LOOP:  cpu time      0.6026: real time      0.6065

 eigenvalue-minimisations  :    40
 total energy-change (2. order) : 0.2288581E-03  (-0.2802603E-03)
 number of electron       4.9999998 magnetization       3.0000000
 augmentation part       -0.5615049 magnetization      -0.1103564

 Broyden mixing:
  rms(total) = 0.23362E-01    rms(broyden)= 0.23362E-01
  rms(prec ) = 0.23680E-01
  weight for this iteration     100.00

 eigenvalues of (default mixing * dielectric matrix)
  average eigenvalue GAMMA=   1.2333
  2.3119  0.7860  0.6019

 Free energy of the ion-electron system (eV)
  ---------------------------------------------------
  alpha Z        PSCENC =         0.02912166
  Ewald energy   TEWEN  =       -33.82057776
  -Hartree energ DENC   =      -109.08078815
  -exchange      EXHF   =         0.00000000
  -V(xc)+E(xc)   XCENC  =         2.42811251
  PAW double counting   =       167.16643277     -158.97437845
  entropy T*S    EENTRO =        -0.00000000
  eigenvalues    EBANDS =       -45.67428836
  atomic energy  EATOM  =       176.04194641
  Solvation  Ediel_sol  =         0.00000000
  ---------------------------------------------------
  free energy    TOTEN  =        -1.88441935 eV

  energy without entropy =       -1.88441935  energy(sigma->0) =       -1.88441935


--------------------------------------------------------------------------------------------------------




--------------------------------------- Iteration      1(   9)  ---------------------------------------


    POTLOK:  cpu time      0.3961: real time      0.3986
    SETDIJ:  cpu time      0.2053: real time      0.2063
     EDDAV:  cpu time      0.0462: real time      0.0466
       DOS:  cpu time      0.0007: real time      0.0007
    CHARGE:  cpu time      0.0225: real time      0.0227
    MIXING:  cpu time      0.0041: real time      0.0041
    --------------------------------------------
      LOOP:  cpu time      0.6750: real time      0.6790

 eigenvalue-minimisations  :    32
 total energy-change (2. order) : 0.4973548E-03  (-0.4138407E-04)
 number of electron       4.9999998 magnetization       3.0000000
 augmentation part       -0.5610879 magnetization      -0.1101680

 Broyden mixing:
  rms(total) = 0.51964E-02    rms(broyden)= 0.51964E-02
  rms(prec ) = 0.57122E-02
  weight for this iteration     100.00

 eigenvalues of (default mixing * dielectric matrix)
  average eigenvalue GAMMA=   1.2210
  2.5743  1.0247  0.7030  0.5819

 Free energy of the ion-electron system (eV)
  ---------------------------------------------------
  alpha Z        PSCENC =         0.02912166
  Ewald energy   TEWEN  =       -33.82057776
  -Hartree energ DENC   =      -109.25146515
  -exchange      EXHF   =         0.00000000
  -V(xc)+E(xc)   XCENC  =         2.43898194
  PAW double counting   =       176.17180750     -167.97130199
  entropy T*S    EENTRO =        -0.00000000
  eigenvalues    EBANDS =       -45.52243462
  atomic energy  EATOM  =       176.04194641
  Solvation  Ediel_sol  =         0.00000000
  ---------------------------------------------------
  free energy    TOTEN  =        -1.88392200 eV

  energy without entropy =       -1.88392200  energy(sigma->0) =       -1.88392200


--------------------------------------------------------------------------------------------------------




--------------------------------------- Iteration      1(  10)  ---------------------------------------


    POTLOK:  cpu time      0.3286: real time      0.3308
    SETDIJ:  cpu time      0.2055: real time      0.2065
     EDDAV:  cpu time      0.0381: real time      0.0384
       DOS:  cpu time      0.0002: real time      0.0002
    CHARGE:  cpu time      0.0210: real time      0.0212
    MIXING:  cpu time      0.0043: real time      0.0043
    --------------------------------------------
      LOOP:  cpu time      0.5978: real time      0.6015

 eigenvalue-minimisations  :    32
 total energy-change (2. order) :-0.2099495E-02  (-0.7999464E-05)
 number of electron       4.9999998 magnetization       3.0000000
 augmentation part       -0.5612484 magnetization      -0.1102452

 Broyden mixing:
  rms(total) = 0.17217E-02    rms(broyden)= 0.17217E-02
  rms(prec ) = 0.24421E-02
  weight for this iteration     100.00

 eigenvalues of (default mixing * dielectric matrix)
  average eigenvalue GAMMA=   1.2180
  2.4598  1.4877  0.8577  0.6756  0.6094

 Free energy of the ion-electron system (eV)
  ---------------------------------------------------
  alpha Z        PSCENC =         0.02912166
  Ewald energy   TEWEN  =       -33.82057776
  -Hartree energ DENC   =      -109.27007584
  -exchange      EXHF   =         0.00000000
  -V(xc)+E(xc)   XCENC  =         2.43797570
  PAW double counting   =       178.64231579     -170.43759297
  entropy T*S    EENTRO =        -0.00000000
  eigenvalues    EBANDS =       -45.50913449
  atomic energy  EATOM  =       176.04194641
  Solvation  Ediel_sol  =         0.00000000
  ---------------------------------------------------
  free energy    TOTEN  =        -1.88602149 eV

  energy without entropy =       -1.88602149  energy(sigma->0) =       -1.88602149


--------------------------------------------------------------------------------------------------------




--------------------------------------- Iteration      1(  11)  ---------------------------------------


    POTLOK:  cpu time      0.4230: real time      0.4256
    SETDIJ:  cpu time      0.2055: real time      0.2065
     EDDAV:  cpu time      0.0394: real time      0.0397
       DOS:  cpu time      0.0002: real time      0.0002
    CHARGE:  cpu time      0.0216: real time      0.0217
    MIXING:  cpu time      0.0048: real time      0.0048
    --------------------------------------------
      LOOP:  cpu time      0.6945: real time      0.6985

 eigenvalue-minimisations  :    32
 total energy-change (2. order) :-0.3790814E-03  (-0.4285474E-05)
 number of electron       4.9999998 magnetization       3.0000000
 augmentation part       -0.5613396 magnetization      -0.1103207

 Broyden mixing:
  rms(total) = 0.82350E-03    rms(broyden)= 0.82350E-03
  rms(prec ) = 0.15891E-02
  weight for this iteration     100.00

 eigenvalues of (default mixing * dielectric matrix)
  average eigenvalue GAMMA=   1.1797
  2.3324  1.8207  0.9352  0.7469  0.6215  0.6215

 Free energy of the ion-electron system (eV)
  ---------------------------------------------------
  alpha Z        PSCENC =         0.02912166
  Ewald energy   TEWEN  =       -33.82057776
  -Hartree energ DENC   =      -109.27802909
  -exchange      EXHF   =         0.00000000
  -V(xc)+E(xc)   XCENC  =         2.43834503
  PAW double counting   =       178.45243243     -170.24697428
  entropy T*S    EENTRO =        -0.00000000
  eigenvalues    EBANDS =       -45.50266499
  atomic energy  EATOM  =       176.04194641
  Solvation  Ediel_sol  =         0.00000000
  ---------------------------------------------------
  free energy    TOTEN  =        -1.88640057 eV

  energy without entropy =       -1.88640057  energy(sigma->0) =       -1.88640057


--------------------------------------------------------------------------------------------------------




--------------------------------------- Iteration      1(  12)  ---------------------------------------


    POTLOK:  cpu time      0.3937: real time      0.3963
    SETDIJ:  cpu time      0.2055: real time      0.2065
     EDDAV:  cpu time      0.0519: real time      0.0523
       DOS:  cpu time      0.0002: real time      0.0002
    CHARGE:  cpu time      0.0214: real time      0.0217
    MIXING:  cpu time      0.0047: real time      0.0047
    --------------------------------------------
      LOOP:  cpu time      0.6774: real time      0.6817

 eigenvalue-minimisations  :    48
 total energy-change (2. order) :-0.1778433E-03  (-0.7276904E-06)
 number of electron       4.9999998 magnetization       3.0000000
 augmentation part       -0.5613568 magnetization      -0.1103108

 Broyden mixing:
  rms(total) = 0.56918E-03    rms(broyden)= 0.56918E-03
  rms(prec ) = 0.11857E-02
  weight for this iteration     100.00

 eigenvalues of (default mixing * dielectric matrix)
  average eigenvalue GAMMA=   1.2485
  2.4049  2.4049  1.1920  0.8191  0.6950  0.6118  0.6118

 Free energy of the ion-electron system (eV)
  ---------------------------------------------------
  alpha Z        PSCENC =         0.02912166
  Ewald energy   TEWEN  =       -33.82057776
  -Hartree energ DENC   =      -109.30008280
  -exchange      EXHF   =         0.00000000
  -V(xc)+E(xc)   XCENC  =         2.43957566
  PAW double counting   =       178.35254124     -170.14636077
  entropy T*S    EENTRO =        -0.00000000
  eigenvalues    EBANDS =       -45.48274208
  atomic energy  EATOM  =       176.04194641
  Solvation  Ediel_sol  =         0.00000000
  ---------------------------------------------------
  free energy    TOTEN  =        -1.88657842 eV

  energy without entropy =       -1.88657842  energy(sigma->0) =       -1.88657842


--------------------------------------------------------------------------------------------------------




--------------------------------------- Iteration      1(  13)  ---------------------------------------


    POTLOK:  cpu time      0.3407: real time      0.3430
    SETDIJ:  cpu time      0.2054: real time      0.2064
     EDDAV:  cpu time      0.0393: real time      0.0396
       DOS:  cpu time      0.0002: real time      0.0002
    --------------------------------------------
      LOOP:  cpu time      0.5856: real time      0.5892

 eigenvalue-minimisations  :    32
 total energy-change (2. order) :-0.8743938E-05  (-0.7295105E-06)
 number of electron       4.9999998 magnetization       3.0000000
 augmentation part       -0.5613568 magnetization      -0.1103108

 Free energy of the ion-electron system (eV)
  ---------------------------------------------------
  alpha Z        PSCENC =         0.02912166
  Ewald energy   TEWEN  =       -33.82057776
  -Hartree energ DENC   =      -109.33104734
  -exchange      EXHF   =         0.00000000
  -V(xc)+E(xc)   XCENC  =         2.44119570
  PAW double counting   =       178.29605653     -170.08948399
  entropy T*S    EENTRO =        -0.00000000
  eigenvalues    EBANDS =       -45.45379838
  atomic energy  EATOM  =       176.04194641
  Solvation  Ediel_sol  =         0.00000000
  ---------------------------------------------------
  free energy    TOTEN  =        -1.88658716 eV

  energy without entropy =       -1.88658716  energy(sigma->0) =       -1.88658716


--------------------------------------------------------------------------------------------------------




 average (electrostatic) potential at core
  the test charge radii are     0.9587
  (the norm of the test charge is              1.0000)
       1 -93.6446
 
 
 
 E-fermi :  -4.9443     XC(G=0):  -0.3402     alpha+bet : -0.0641

 Fermi energy:        -4.9443455675

 spin component 1

 k-point     1 :       0.0000    0.0000    0.0000
  band No.  band energies     occupation 
      1     -14.7474      1.00000
      2      -6.2283      1.00000
      3      -6.2283      1.00000
      4      -6.2283      1.00000
      5      -0.5443      0.00000
      6       0.1997      0.00000
      7       0.3152      0.00000
      8       0.3220      0.00000
 Fermi energy:        -4.9443455675

 spin component 2

 k-point     1 :       0.0000    0.0000    0.0000
  band No.  band energies     occupation 
      1     -12.0216      1.00000
      2      -3.6604      0.00000
      3      -3.6604      0.00000
      4      -3.6604      0.00000
      5      -0.1229      0.00000
      6       0.5207      0.00000
      7       0.5466      0.00000
      8       0.5622      0.00000


--------------------------------------------------------------------------------------------------------


 soft charge-density along one line, spin component           1
         0         1         2         3         4         5         6         7         8         9
 total charge-density along one line
 
 soft charge-density along one line, spin component           2
         0         1         2         3         4         5         6         7         8         9
 total charge-density along one line
 
 pseudopotential strength for first ion, spin component:           1
 30.837  38.469   0.000  -0.000   0.000   0.000  -0.000   0.000
 38.469  47.995   0.000  -0.000   0.000   0.000  -0.000   0.000
  0.000   0.000   6.796  -0.000   0.000  10.510  -0.000   0.000
 -0.000  -0.000  -0.000   6.796   0.000  -0.000  10.510   0.000
  0.000   0.000   0.000   0.000   6.796   0.000   0.000  10.510
  0.000   0.000  10.510  -0.000   0.000  16.271  -0.000   0.000
 -0.000  -0.000  -0.000  10.510   0.000  -0.000  16.271   0.000
  0.000   0.000   0.000   0.000  10.510   0.000   0.000  16.271
 pseudopotential strength for first ion, spin component:           2
 30.535  38.097   0.000  -0.000   0.000   0.000  -0.000   0.000
 38.097  47.534   0.000  -0.000   0.000   0.000  -0.000   0.000
  0.000   0.000   6.623   0.000  -0.000  10.242   0.000  -0.000
 -0.000  -0.000   0.000   6.623  -0.000   0.000  10.242  -0.000
  0.000   0.000  -0.000  -0.000   6.623  -0.000  -0.000  10.242
  0.000   0.000  10.242   0.000  -0.000  15.857   0.000  -0.000
 -0.000  -0.000   0.000  10.242  -0.000   0.000  15.857  -0.000
  0.000   0.000  -0.000  -0.000  10.242  -0.000  -0.000  15.857
 total augmentation occupancy for first ion, spin component:           1
  2.744  -0.813   0.000  -0.000   0.000  -0.000   0.000  -0.000
 -0.813   0.830  -0.000   0.000  -0.000   0.000  -0.000   0.000
  0.000  -0.000   1.364  -0.000   0.000  -0.120   0.000  -0.000
 -0.000   0.000  -0.000   1.364   0.000   0.000  -0.120  -0.000
  0.000  -0.000   0.000   0.000   1.364  -0.000  -0.000  -0.120
 -0.000   0.000  -0.120   0.000  -0.000   0.011  -0.000   0.000
  0.000  -0.000   0.000  -0.120  -0.000  -0.000   0.011   0.000
 -0.000   0.000  -0.000  -0.000  -0.120   0.000   0.000   0.011
 total augmentation occupancy for first ion, spin component:           2
  2.728  -0.942   0.000  -0.000   0.000  -0.000   0.000  -0.000
 -0.942  -0.267  -0.000  -0.000   0.000  -0.000   0.000  -0.000
  0.000  -0.000   1.364  -0.000   0.000  -0.120   0.000  -0.000
 -0.000  -0.000  -0.000   1.364   0.000   0.000  -0.120  -0.000
  0.000   0.000   0.000   0.000   1.364  -0.000  -0.000  -0.120
 -0.000  -0.000  -0.120   0.000  -0.000   0.011  -0.000   0.000
  0.000   0.000   0.000  -0.120  -0.000  -0.000   0.011   0.000
 -0.000  -0.000  -0.000  -0.000  -0.120   0.000   0.000   0.011


------------------------ aborting loop because EDIFF is reached ----------------------------------------


    CHARGE:  cpu time      0.0257: real time      0.0260
    FORLOC:  cpu time      0.0020: real time      0.0020
    FORNL :  cpu time      0.0045: real time      0.0046
    STRESS:  cpu time      0.0172: real time      0.0173
    FORCOR:  cpu time      0.3063: real time      0.3084
    FORHAR:  cpu time      0.0302: real time      0.0304
    MIXING:  cpu time      0.0055: real time      0.0056
    OFIELD:  cpu time      0.0000: real time      0.0000

  FORCE on cell =-STRESS in cart. coord.  units (eV):
  Direction    XX          YY          ZZ          XY          YZ          ZX
  --------------------------------------------------------------------------------------
  Alpha Z     0.02912     0.02912     0.02912
  Ewald     -11.04600   -11.27373   -11.50086     0.00000     0.00000     0.00000
  Hartree    36.68289    36.46209    36.24177    -0.00001     0.00000    -0.00001
  E(xc)     -16.15403   -16.15403   -16.15404    -0.00000     0.00000    -0.00000
  Local    -102.32230  -101.87385  -101.42637    -0.00002     0.00001    -0.00001
  n-local    56.88088    56.88091    56.88086     0.00001    -0.00000     0.00001
  augment   -11.16263   -11.16262   -11.16254    -0.00001     0.00000    -0.00001
  Kinetic    47.09855    47.09860    47.09863     0.00003    -0.00001     0.00003
  Fock        0.00000     0.00000     0.00000     0.00000     0.00000     0.00000
  -------------------------------------------------------------------------------------
  Total       0.00649     0.00650     0.00658     0.00001    -0.00000     0.00001
  in kB       0.00302     0.00302     0.00306     0.00001    -0.00000     0.00001
  external pressure =        0.00 kB  Pullay stress =        0.00 kB


 VOLUME and BASIS-vectors are now :
 -----------------------------------------------------------------------------
  energy-cutoff  :      520.00
  volume of cell :     3442.80
      direct lattice vectors                 reciprocal lattice vectors
    15.000000000  0.000000000  0.000000000     0.066666667 -0.000000000  0.000000000
     0.000000000 15.100000000  0.000000000     0.000000000  0.066225166  0.000000000
     0.000000000  0.000000000 15.200000000    -0.000000000 -0.000000000  0.065789474

  length of vectors
    15.000000000 15.100000000 15.200000000     0.066666667  0.066225166  0.065789474


 FORCES acting on ions
    electron-ion (+dipol)            ewald-force                    non-local-force                 convergence-correction
 -----------------------------------------------------------------------------------------------
   0.163E-04 -.203E-05 -.787E-05   -.116E-17 -.957E-17 -.906E-17   -.929E-05 0.233E-05 0.598E-05   -.490E-05 0.128E-05 0.262E-05
 -----------------------------------------------------------------------------------------------
   0.163E-04 -.203E-05 -.787E-05   -.116E-17 -.957E-17 -.906E-17   -.929E-05 0.233E-05 0.598E-05   -.490E-05 0.128E-05 0.262E-05
 
 
 POSITION                                       TOTAL-FORCE (eV/Angst)
 -----------------------------------------------------------------------------------
      0.00000      0.00000      0.00000         0.000002      0.000002      0.000001
 -----------------------------------------------------------------------------------
    total drift:                                0.000002      0.000002      0.000001


--------------------------------------------------------------------------------------------------------



  FREE ENERGIE OF THE ION-ELECTRON SYSTEM (eV)
  ---------------------------------------------------
  free  energy   TOTEN  =        -1.88658716 eV

  energy  without entropy=       -1.88658716  energy(sigma->0) =       -1.88658716
 


--------------------------------------------------------------------------------------------------------


    POTLOK:  cpu time      0.5279: real time      0.5310


--------------------------------------------------------------------------------------------------------


     LOOP+:  cpu time      7.0888: real time      7.1365
    4ORBIT:  cpu time      0.0000: real time      0.0000

 total amount of memory used by VASP MPI-rank0    58360. kBytes
=======================================================================

   base      :      30000. kBytes
   nonl-proj :        116. kBytes
   fftplans  :       8156. kBytes
   grid      :      19898. kBytes
   one-center:          3. kBytes
   wavefun   :        187. kBytes
 
  
  
 General timing and accounting informations for this job:
 ========================================================
  
                  Total CPU time used (sec):        8.513
                            User time (sec):        7.499
                          System time (sec):        1.015
                         Elapsed time (sec):        9.118
  
                   Maximum memory used (kb):      444584.
                   Average memory used (kb):          N/A
  
                          Minor page faults:        67171
                          Major page faults:           47
                 Voluntary context switches:         1207
