 vasp.6.4.2 20Jul23 (build Aug 07 2024 12:45:50) gamma-only                     
  
 executed on             LinuxIFC date 2026.09.30  12:24:09
 running   64 mpi-ranks, on    1 nodes
 distrk:  each k-point on   64 cores,    1 groups
 distr:  one band on NCORE=  32 cores,    2 groups


--------------------------------------------------------------------------------------------------------


 INCAR:
   ALGO = Normal
   EDIFF = 1e-05
   EFERMI = Midgap
   ENCUT = 520.0
   GGA = Pe
   GGA_COMPAT = False
   IBRION = -1
   ISMEAR = 0
   ISPIN = 1
   ISYM = 0
   LAECHG = False
   LASPH = True
   LCHARG = False
   LMAXMIX = 6
   LMIXTAU = True
   LREAL = False
   LWAVE = False
   NCORE = 32
   NELM = 400
   NSW = 0
   PREC = Accurate
   SIGMA = 0.05
   SYSTEM = Na_atom_ispin1

 POTCAR:    PAW_PBE Na_pv 19Sep2006               
 -----------------------------------------------------------------------------
|                                                                             |
|           W    W    AA    RRRRR   N    N  II  N    N   GGGG   !!!           |
|           W    W   A  A   R    R  NN   N  II  NN   N  G    G  !!!           |
|           W    W  A    A  R    R  N N  N  II  N N  N  G       !!!           |
|           W WW W  AAAAAA  RRRRR   N  N N  II  N  N N  G  GGG   !            |
|           WW  WW  A    A  R   R   N   NN  II  N   NN  G    G                |
|           W    W  A    A  R    R  N    N  II  N    N   GGGG   !!!           |
|                                                                             |
|     For optimal performance we recommend to set                             |
|       NCORE = 2 up to number-of-cores-per-socket                            |
|     NCORE specifies how many cores store one orbital (NPAR=cpu/NCORE).      |
|     This setting can greatly improve the performance of VASP for DFT.       |
|     The default, NCORE=1 might be grossly inefficient on modern             |
|     multi-core architectures or massively parallel machines. Do your        |
|     own testing! More info at https://www.vasp.at/wiki/index.php/NCORE      |
|     Unfortunately you need to use the default for GW and RPA                |
|     calculations (for HF NCORE is supported but not extensively tested      |
|     yet).                                                                   |
|                                                                             |
 -----------------------------------------------------------------------------

 POTCAR:    PAW_PBE Na_pv 19Sep2006               
   SHA256 =  6a2f546d9e11350984debacf3dc457d8cffc0868e817d445faca461816a32b94 Na_pv/POTCAR          
   COPYR  = (c) Copyright 19Sep2006 Georg Kresse                                                    
   COPYR  = This file is part of the software VASP. Any use, copying, and all other rights are regul
   COPYR  = If you do not have a valid VASP license, you may not use, copy or distribute this file. 
   VRHFIN =Na: p6s1                                                                                 
   LEXCH  = PE                                                                                      
   EATOM  =   766.0439 eV,   56.3026 Ry                                                             
                                                                                                    
   TITEL  = PAW_PBE Na_pv 19Sep2006                                                                 
   LULTRA =        F    use ultrasoft PP ?                                                          
   IUNSCR =        1    unscreen: 0-lin 1-nonlin 2-no                                               
   RPACOR =    1.800    partial core radius                                                         
   POMASS =   22.990; ZVAL   =    7.000    mass and valenz                                          
   RCORE  =    2.200    outmost cutoff radius                                                       
   RWIGS  =    2.200; RWIGS  =    1.164    wigner-seitz radius (au A)                               
   ENMAX  =  259.561; ENMIN  =  194.671 eV                                                          
   ICORE  =        2    local potential                                                             
   LCOR   =        T    correct aug charges                                                         
   LPAW   =        T    paw PP                                                                      
   EAUG   =  368.056                                                                                
   DEXC   =    0.000                                                                                
   RMAX   =    2.245    core radius for proj-oper                                                   
   RAUG   =    1.300    factor for augmentation sphere                                              
   RDEP   =    2.259    radius for radial grids                                                     
   RDEPT  =    1.738    core radius for aug-charge                                                  
                                                                                                    
   Atomic configuration                                                                             
    5 entries                                                                                       
     n  l   j            E        occ.                                                              
     1  0  0.50     -1033.6933   2.0000                                                             
     2  0  0.50       -56.7526   2.0000                                                             
     2  1  1.50       -28.6721   6.0000                                                             
     3  0  0.50        -2.7440   1.0000                                                             
     3  2  1.50        -1.3606   0.0000                                                             
   Description                                                                                      
     l       E           TYP  RCUT    TYP  RCUT                                                     
     1    -28.6720912     23  2.000                                                                 
     1      6.8029130     23  2.000                                                                 
     0     -2.7439560     23  2.200                                                                 
     0     34.0145650     23  2.200                                                                 
     2     -1.3605826     23  2.200                                                                 
  local pseudopotential read in
  partial core-charges read in
  partial kinetic energy density read in
  atomic valenz-charges read in
  non local Contribution for L=           1  read in
    real space projection operators read in
  non local Contribution for L=           1  read in
    real space projection operators read in
  non local Contribution for L=           0  read in
    real space projection operators read in
  non local Contribution for L=           0  read in
    real space projection operators read in
    PAW grid and wavefunctions read in
 
   number of l-projection  operators is LMAX  =           4
   number of lm-projection operators is LMMAX =           8
 
  PAW_PBE Na_pv 19Sep2006               :
 energy of atom  1       EATOM= -766.0439
 kinetic energy error for atom=    0.0019 (will be added to EATOM!!)
 
 
 POSCAR: Na1
  positions in direct lattice
  No initial velocities read in
 exchange correlation table for  LEXCH =        8
   RHO(1)=    0.500       N(1)  =     2000
   RHO(2)=  100.500       N(2)  =     4000
 


--------------------------------------------------------------------------------------------------------


 ion  position               nearest neighbor table
   1  0.000  0.000  0.000-
 

IMPORTANT INFORMATION: All symmetrisations will be switched off!
NOSYMM: (Re-)initialisation of all symmetry stuff for point group C_1.


----------------------------------------------------------------------------------------

                                     Primitive cell                                     

  volume of cell :    5929.5600

  direct lattice vectors                    reciprocal lattice vectors
    18.000000000  0.000000000  0.000000000     0.055555556 -0.000000000  0.000000000
     0.000000000 18.100000000  0.000000000     0.000000000  0.055248619  0.000000000
     0.000000000  0.000000000 18.200000000    -0.000000000 -0.000000000  0.054945055

  length of vectors
    18.000000000 18.100000000 18.200000000     0.055555556  0.055248619  0.054945055

  position of ions in fractional coordinates (direct lattice)
     0.000000000  0.000000000  0.000000000

  ion indices of the primitive-cell ions
   primitive index   ion index
                 1           1

----------------------------------------------------------------------------------------

 
 
 KPOINTS: Automatic kpoint scheme                 

Automatic generation of k-mesh.
 Grid dimensions read from file:
 generate k-points for:    1    1    1

 Generating k-lattice:

  Cartesian coordinates                     Fractional coordinates (reciprocal lattice)
     0.055555556 -0.000000000  0.000000000     1.000000000 -0.000000000  0.000000000
     0.000000000  0.055248619  0.000000000     0.000000000  1.000000000  0.000000000
    -0.000000000 -0.000000000  0.054945055    -0.000000000 -0.000000000  1.000000000

  Length of vectors
     0.055555556  0.055248619  0.054945055

  Shift w.r.t. Gamma in fractional coordinates (k-lattice)
     0.000000000  0.000000000  0.000000000

 
 Subroutine IBZKPT returns following result:
 ===========================================
 
 Found      1 irreducible k-points:
 
 Following reciprocal coordinates:
            Coordinates               Weight
  0.000000  0.000000  0.000000      1.000000
 
 Following cartesian coordinates:
            Coordinates               Weight
  0.000000  0.000000  0.000000      1.000000
 


--------------------------------------------------------------------------------------------------------




 Dimension of arrays:
   k-points           NKPTS =      1   k-points in BZ     NKDIM =      1   number of bands    NBANDS=      8
   number of dos      NEDOS =    301   number of ions     NIONS =      1
   non local maximal  LDIM  =      4   non local SUM 2l+1 LMDIM =      8
   total plane-waves  NPLWV = ******
   max r-space proj   IRMAX =      1   max aug-charges    IRDMAX=  12863
   dimension x,y,z NGX =   140 NGY =  140 NGZ =  140
   dimension x,y,z NGXF=   280 NGYF=  280 NGZF=  280
   support grid    NGXF=   280 NGYF=  280 NGZF=  280
   ions per type =               1
   NGX,Y,Z   is equivalent  to a cutoff of  12.93, 12.86, 12.79 a.u.
   NGXF,Y,Z  is equivalent  to a cutoff of  25.86, 25.72, 25.58 a.u.

 SYSTEM =  Na_atom_ispin1                          
 POSCAR =  Na1                                     

 Startparameter for this run:
   NWRITE =      2    write-flag & timer
   PREC   = accura    normal or accurate (medium, high low for compatibility)
   ISTART =      0    job   : 0-new  1-cont  2-samecut
   ICHARG =      2    charge: 1-file 2-atom 10-const
   ISPIN  =      1    spin polarized calculation?
   LNONCOLLINEAR =      F non collinear calculations
   LSORBIT =      F    spin-orbit coupling
   INIWAV =      1    electr: 0-lowe 1-rand  2-diag
   LASPH  =      T    aspherical Exc in radial PAW
 Electronic Relaxation 1
   ENCUT  =  520.0 eV  38.22 Ry    6.18 a.u.  33.47 33.65 33.84*2*pi/ulx,y,z
   ENINI  =  520.0     initial cutoff
   ENAUG  =  368.1 eV  augmentation charge cutoff
   NELM   =    400;   NELMIN=  2; NELMDL= -5     # of ELM steps 
   EDIFF  = 0.1E-04   stopping-criterion for ELM
   LREAL  =      F    real-space projection
   NLSPLINE    = F    spline interpolate recip. space projectors
   LCOMPAT=      F    compatible to vasp.4.4
   GGA_COMPAT  = F    GGA compatible to vasp.4.4-vasp.4.6
   LMAXPAW     = -100 max onsite density
   LMAXMIX     =    6 max onsite mixed and CHGCAR
   VOSKOWN=      0    Vosko Wilk Nusair interpolation
   ROPT   =    0.00000
 Ionic relaxation
   EDIFFG = 0.1E-03   stopping-criterion for IOM
   NSW    =      0    number of steps for IOM
   NBLOCK =      1;   KBLOCK =      1    inner block; outer block 
   IBRION =     -1    ionic relax: 0-MD 1-quasi-New 2-CG
   NFREE  =      0    steps in history (QN), initial steepest desc. (CG)
   ISIF   =      2    stress and relaxation
   IWAVPR =     10    prediction:  0-non 1-charg 2-wave 3-comb
   ISYM   =      0    0-nonsym 1-usesym 2-fastsym
   LCORR  =      T    Harris-Foulkes like correction to forces

   POTIM  = 0.5000    time-step for ionic-motion
   TEIN   =    0.0    initial temperature
   TEBEG  =    0.0;   TEEND  =   0.0 temperature during run
   SMASS  =  -3.00    Nose mass-parameter (am)
   estimated Nose-frequenzy (Omega)   =  0.10E-29 period in steps = 0.13E+47 mass=  -0.740E-26a.u.
   SCALEE = 1.0000    scale energy and forces
   NPACO  =    256;   APACO  = 10.0  distance and # of slots for P.C.
   PSTRESS=    0.0 pullay stress

  Mass of Ions in am
   POMASS =  22.99
  Ionic Valenz
   ZVAL   =   7.00
  Atomic Wigner-Seitz radii
   RWIGS  =  -1.00
  virtual crystal weights 
   VCA    =   1.00
   NELECT =       7.0000    total number of electrons
   NUPDOWN=      -1.0000    fix difference up-down

 DOS related values:
   EMIN   =  10.00;   EMAX   =-10.00  energy-range for DOS
   EFERMI =   0.00;   METHOD = MIDGAP      
   ISMEAR =     0;   SIGMA  =   0.05  broadening in eV -4-tet -1-fermi 0-gaus

 Electronic relaxation 2 (details)
   IALGO  =     38    algorithm
   LDIAG  =      T    sub-space diagonalisation (order eigenvalues)
   LSUBROT=      F    optimize rotation matrix (better conditioning)
   TURBO    =      0    0=normal 1=particle mesh
   IRESTART =      0    0=no restart 2=restart with 2 vectors
   NREBOOT  =      0    no. of reboots
   NMIN     =      0    reboot dimension
   EREF     =   0.00    reference energy to select bands
   IMIX   =      4    mixing-type and parameters
     AMIX     =   0.40;   BMIX     =  1.00
     AMIX_MAG =   1.60;   BMIX_MAG =  1.00
     AMIN     =   0.10
     WC   =   100.;   INIMIX=   1;  MIXPRE=   1;  MAXMIX= -45

 Intra band minimization:
   WEIMIN = 0.0000     energy-eigenvalue tresh-hold
   EBREAK =  0.31E-06  absolut break condition
   DEPER  =   0.30     relativ break condition  

   TIME   =   0.40     timestep for ELM

  volume/ion in A,a.u.               =    5929.56     40014.65
  Fermi-wavevector in a.u.,A,eV,Ry     =   0.173021  0.326963  0.407310  0.029936
  Thomas-Fermi vector in A             =   0.886960
 
 Write flags
   LWAVE        =      F    write WAVECAR
   LDOWNSAMPLE  =      F    k-point downsampling of WAVECAR
   LCHARG       =      F    write CHGCAR
   LVTOT        =      F    write LOCPOT, total local potential
   LVHAR        =      F    write LOCPOT, Hartree potential only
   LELF         =      F    write electronic localiz. function (ELF)
   LORBIT       =      0    0 simple, 1 ext, 2 COOP (PROOUT), +10 PAW based schemes


 Dipole corrections
   LMONO  =      F    monopole corrections only (constant potential shift)
   LDIPOL =      F    correct potential (dipole corrections)
   IDIPOL =      0    1-x, 2-y, 3-z, 4-all directions 
   EPSILON=  1.0000000 bulk dielectric constant

 Exchange correlation treatment:
   GGA     =    PE    GGA type
   LEXCH   =     8    internal setting for exchange type
   LIBXC   =     F    Libxc                    
   VOSKOWN =     0    Vosko Wilk Nusair interpolation
   LHFCALC =     F    Hartree Fock is set to
   LHFONE  =     F    Hartree Fock one center treatment
   AEXX    =    0.0000 exact exchange contribution

 Linear response parameters
   LEPSILON=     F    determine dielectric tensor
   LRPA    =     F    only Hartree local field effects (RPA)
   LNABLA  =     F    use nabla operator in PAW spheres
   LVEL    =     F    velocity operator in full k-point grid
   CSHIFT  =0.1000    complex shift for real part using Kramers Kronig
   OMEGAMAX=  -1.0    maximum frequency
   DEG_THRESHOLD= 0.2000000E-02 threshold for treating states as degnerate
   RTIME   =   -0.100 relaxation time in fs
  (WPLASMAI=    0.000 imaginary part of plasma frequency in eV, 0.658/RTIME)
   DFIELD  = 0.0000000 0.0000000 0.0000000 field for delta impulse in time
 
  Optional k-point grid parameters
   LKPOINTS_OPT  =     F    use optional k-point grid
   KPOINTS_OPT_MODE=     1    mode for optional k-point grid
 
 Orbital magnetization related:
   ORBITALMAG=     F  switch on orbital magnetization
   LCHIMAG   =     F  perturbation theory with respect to B field
   DQ        =  0.001000  dq finite difference perturbation B field
   LLRAUG    =     F  two centre corrections for induced B field
   LBONE     =     F  B-component reconstruction in AE one-centre
   LVGVCALC  =     T  calculate vGv susceptibility
   LVGVAPPL  =     F  apply vGv susceptibility instead of pGv for G=0

 Random number generation:
   RANDOM_GENERATOR = DEFAULT
   PCG_SEED         = not used


--------------------------------------------------------------------------------------------------------


 Static calculation
 charge density and potential will be updated during run
 non-spin polarized calculation
 Variant of blocked Davidson
 Davidson routine will perform the subspace rotation
 perform sub-space diagonalisation
    after iterative eigenvector-optimisation
 modified Broyden-mixing scheme, WC =      100.0
 initial mixing is a Kerker type mixing with AMIX =  0.4000 and BMIX =      1.0000
 Hartree-type preconditioning will be used
 using additional bands            4
 reciprocal scheme for non local part
 use partial core corrections
 calculate Harris-corrections to forces 
   (improved forces if not selfconsistent)
 use gradient corrections 
 use of overlap-Matrix (Vanderbilt PP)
 Gauss-broadening in eV      SIGMA  =   0.05


--------------------------------------------------------------------------------------------------------


  energy-cutoff  :      520.00
  volume of cell :     5929.56
      direct lattice vectors                 reciprocal lattice vectors
    18.000000000  0.000000000  0.000000000     0.055555556 -0.000000000  0.000000000
     0.000000000 18.100000000  0.000000000     0.000000000  0.055248619  0.000000000
     0.000000000  0.000000000 18.200000000    -0.000000000 -0.000000000  0.054945055

  length of vectors
    18.000000000 18.100000000 18.200000000     0.055555556  0.055248619  0.054945055


 
 k-points in units of 2pi/SCALE and weight: Automatic kpoint scheme                 
   0.00000000  0.00000000  0.00000000       1.000
 
 k-points in reciprocal lattice and weights: Automatic kpoint scheme                 
   0.00000000  0.00000000  0.00000000       1.000
 
 position of ions in fractional coordinates (direct lattice) 
   0.00000000  0.00000000  0.00000000
 
 position of ions in cartesian coordinates  (Angst):
   0.00000000  0.00000000  0.00000000
 


--------------------------------------------------------------------------------------------------------


 use parallel FFT for orbitals z direction half grid
 k-point   1 :   0.0000 0.0000 0.0000  plane waves:   79868

 maximum and minimum number of plane-waves per node :      2508     2479

 maximum number of plane-waves:     79868
 maximum index in each direction: 
   IXMAX=   33   IYMAX=   33   IZMAX=   33
   IXMIN=  -33   IYMIN=  -33   IZMIN=    0


 parallel 3D FFT for wavefunctions:
    minimum data exchange during FFTs selected (reduces bandwidth)
 parallel 3D FFT for charge:
    minimum data exchange during FFTs selected (reduces bandwidth)


 total amount of memory used by VASP MPI-rank0    68130. kBytes
=======================================================================

   base      :      30000. kBytes
   nonl-proj :        198. kBytes
   fftplans  :      14937. kBytes
   grid      :      22836. kBytes
   one-center:          1. kBytes
   wavefun   :        158. kBytes
 
     INWAV:  cpu time      0.0000: real time      0.0000
 Broyden mixing: mesh for mixing (old mesh)
   NGX = 67   NGY = 67   NGZ = 67
  (NGX  =280   NGY  =280   NGZ  =280)
  gives a total of 300763 points

 initial charge density was supplied:
 charge density of overlapping atoms calculated
 number of electron       7.0000000 magnetization 
 keeping initial charge density in first step


--------------------------------------------------------------------------------------------------------


 Maximum index for augmentation-charges          641 (set IRDMAX)


--------------------------------------------------------------------------------------------------------


 First call to EWALD:  gamma=   0.098
 Maximum number of real-space cells 3x 3x 3
 Maximum number of reciprocal cells 3x 3x 3

    FEWALD:  cpu time      0.0010: real time      0.0010


--------------------------------------- Ionic step        1  -------------------------------------------




--------------------------------------- Iteration      1(   1)  ---------------------------------------


    POTLOK:  cpu time      0.2314: real time      0.2334
    SETDIJ:  cpu time      0.0481: real time      0.0484
     EDDAV:  cpu time      0.0489: real time      0.0493
       DOS:  cpu time      0.0005: real time      0.0005
    --------------------------------------------
      LOOP:  cpu time      0.3289: real time      0.3315

 eigenvalue-minimisations  :    16
 total energy-change (2. order) : 0.1619431E+03  (-0.8499029E+02)
 number of electron       7.0000000 magnetization 
 augmentation part        7.0000000 magnetization 

 Free energy of the ion-electron system (eV)
  ---------------------------------------------------
  alpha Z        PSCENC =         0.05142041
  Ewald energy   TEWEN  =       -55.30181893
  -Hartree energ DENC   =      -471.62771733
  -exchange      EXHF   =         0.00000000
  -V(xc)+E(xc)   XCENC  =        23.96398949
  PAW double counting   =       502.34785863     -590.92071171
  entropy T*S    EENTRO =        -0.02922479
  eigenvalues    EBANDS =       -12.58271258
  atomic energy  EATOM  =       766.04200436
  Solvation  Ediel_sol  =         0.00000000
  ---------------------------------------------------
  free energy    TOTEN  =       161.94308754 eV

  energy without entropy =      161.97231233  energy(sigma->0) =      161.95769993


--------------------------------------------------------------------------------------------------------




--------------------------------------- Iteration      1(   2)  ---------------------------------------


     EDDAV:  cpu time      0.0612: real time      0.0625
       DOS:  cpu time      0.0003: real time      0.0003
    --------------------------------------------
      LOOP:  cpu time      0.0616: real time      0.0628

 eigenvalue-minimisations  :    24
 total energy-change (2. order) :-0.1416851E+03  (-0.1416651E+03)
 number of electron       7.0000000 magnetization 
 augmentation part        7.0000000 magnetization 

 Free energy of the ion-electron system (eV)
  ---------------------------------------------------
  alpha Z        PSCENC =         0.05142041
  Ewald energy   TEWEN  =       -55.30181893
  -Hartree energ DENC   =      -471.62771733
  -exchange      EXHF   =         0.00000000
  -V(xc)+E(xc)   XCENC  =        23.96398949
  PAW double counting   =       502.34785863     -590.92071171
  entropy T*S    EENTRO =        -0.02820948
  eigenvalues    EBANDS =      -154.26886762
  atomic energy  EATOM  =       766.04200436
  Solvation  Ediel_sol  =         0.00000000
  ---------------------------------------------------
  free energy    TOTEN  =        20.25794781 eV

  energy without entropy =       20.28615729  energy(sigma->0) =       20.27205255


--------------------------------------------------------------------------------------------------------




--------------------------------------- Iteration      1(   3)  ---------------------------------------


     EDDAV:  cpu time      0.0457: real time      0.0461
       DOS:  cpu time      0.0003: real time      0.0003
    --------------------------------------------
      LOOP:  cpu time      0.0460: real time      0.0465

 eigenvalue-minimisations  :    16
 total energy-change (2. order) :-0.1977397E+02  (-0.1977397E+02)
 number of electron       7.0000000 magnetization 
 augmentation part        7.0000000 magnetization 

 Free energy of the ion-electron system (eV)
  ---------------------------------------------------
  alpha Z        PSCENC =         0.05142041
  Ewald energy   TEWEN  =       -55.30181893
  -Hartree energ DENC   =      -471.62771733
  -exchange      EXHF   =         0.00000000
  -V(xc)+E(xc)   XCENC  =        23.96398949
  PAW double counting   =       502.34785863     -590.92071171
  entropy T*S    EENTRO =        -0.02820948
  eigenvalues    EBANDS =      -174.04283883
  atomic energy  EATOM  =       766.04200436
  Solvation  Ediel_sol  =         0.00000000
  ---------------------------------------------------
  free energy    TOTEN  =         0.48397660 eV

  energy without entropy =        0.51218608  energy(sigma->0) =        0.49808134


--------------------------------------------------------------------------------------------------------




--------------------------------------- Iteration      1(   4)  ---------------------------------------


     EDDAV:  cpu time      0.0454: real time      0.0459
       DOS:  cpu time      0.0003: real time      0.0004
    --------------------------------------------
      LOOP:  cpu time      0.0458: real time      0.0462

 eigenvalue-minimisations  :    16
 total energy-change (2. order) :-0.5118913E+00  (-0.5118913E+00)
 number of electron       7.0000000 magnetization 
 augmentation part        7.0000000 magnetization 

 Free energy of the ion-electron system (eV)
  ---------------------------------------------------
  alpha Z        PSCENC =         0.05142041
  Ewald energy   TEWEN  =       -55.30181893
  -Hartree energ DENC   =      -471.62771733
  -exchange      EXHF   =         0.00000000
  -V(xc)+E(xc)   XCENC  =        23.96398949
  PAW double counting   =       502.34785863     -590.92071171
  entropy T*S    EENTRO =        -0.02820948
  eigenvalues    EBANDS =      -174.55473012
  atomic energy  EATOM  =       766.04200436
  Solvation  Ediel_sol  =         0.00000000
  ---------------------------------------------------
  free energy    TOTEN  =        -0.02791469 eV

  energy without entropy =        0.00029479  energy(sigma->0) =       -0.01380995


--------------------------------------------------------------------------------------------------------




--------------------------------------- Iteration      1(   5)  ---------------------------------------


     EDDAV:  cpu time      0.0460: real time      0.0464
       DOS:  cpu time      0.0003: real time      0.0003
    CHARGE:  cpu time      0.0213: real time      0.0215
    MIXING:  cpu time      0.0043: real time      0.0043
    --------------------------------------------
      LOOP:  cpu time      0.0719: real time      0.0725

 eigenvalue-minimisations  :    16
 total energy-change (2. order) :-0.7871268E-02  (-0.7871267E-02)
 number of electron       7.0000020 magnetization 
 augmentation part        4.4635984 magnetization 

 Broyden mixing:
  rms(total) = 0.15661E-02    rms(broyden)= 0.13511E-02
  rms(prec ) = 0.13680E-02
  weight for this iteration     100.00
  WARNING: grid for Broyden might be to small

 Free energy of the ion-electron system (eV)
  ---------------------------------------------------
  alpha Z        PSCENC =         0.05142041
  Ewald energy   TEWEN  =       -55.30181893
  -Hartree energ DENC   =      -471.62771733
  -exchange      EXHF   =         0.00000000
  -V(xc)+E(xc)   XCENC  =        23.96398949
  PAW double counting   =       502.34785863     -590.92071171
  entropy T*S    EENTRO =        -0.02820948
  eigenvalues    EBANDS =      -174.56260139
  atomic energy  EATOM  =       766.04200436
  Solvation  Ediel_sol  =         0.00000000
  ---------------------------------------------------
  free energy    TOTEN  =        -0.03578596 eV

  energy without entropy =       -0.00757648  energy(sigma->0) =       -0.02168122


--------------------------------------------------------------------------------------------------------




--------------------------------------- Iteration      1(   6)  ---------------------------------------


    POTLOK:  cpu time      0.2433: real time      0.2453
    SETDIJ:  cpu time      0.0445: real time      0.0447
     EDDAV:  cpu time      0.0466: real time      0.0470
       DOS:  cpu time      0.0004: real time      0.0004
    CHARGE:  cpu time      0.0219: real time      0.0221
    MIXING:  cpu time      0.0045: real time      0.0045
    --------------------------------------------
      LOOP:  cpu time      0.3611: real time      0.3640

 eigenvalue-minimisations  :    16
 total energy-change (2. order) :-0.1987654E-03  (-0.2295272E-03)
 number of electron       7.0000020 magnetization 
 augmentation part        4.4641474 magnetization 

 Broyden mixing:
  rms(total) = 0.84569E-03    rms(broyden)= 0.81990E-03
  rms(prec ) = 0.83978E-03
  weight for this iteration     100.00

 eigenvalues of (default mixing * dielectric matrix)
  average eigenvalue GAMMA=   1.1154
  1.1154

 Free energy of the ion-electron system (eV)
  ---------------------------------------------------
  alpha Z        PSCENC =         0.05142041
  Ewald energy   TEWEN  =       -55.30181893
  -Hartree energ DENC   =      -471.62073119
  -exchange      EXHF   =         0.00000000
  -V(xc)+E(xc)   XCENC  =        23.96315653
  PAW double counting   =       502.07219788     -590.64307240
  entropy T*S    EENTRO =        -0.02820948
  eigenvalues    EBANDS =      -174.57093190
  atomic energy  EATOM  =       766.04200436
  Solvation  Ediel_sol  =         0.00000000
  ---------------------------------------------------
  free energy    TOTEN  =        -0.03598472 eV

  energy without entropy =       -0.00777525  energy(sigma->0) =       -0.02187998


--------------------------------------------------------------------------------------------------------




--------------------------------------- Iteration      1(   7)  ---------------------------------------


    POTLOK:  cpu time      0.2358: real time      0.2377
    SETDIJ:  cpu time      0.0444: real time      0.0447
     EDDAV:  cpu time      0.0621: real time      0.0627
       DOS:  cpu time      0.0004: real time      0.0004
    CHARGE:  cpu time      0.0211: real time      0.0213
    MIXING:  cpu time      0.0045: real time      0.0046
    --------------------------------------------
      LOOP:  cpu time      0.3684: real time      0.3713

 eigenvalue-minimisations  :    24
 total energy-change (2. order) :-0.2014423E-04  (-0.1035914E-04)
 number of electron       7.0000020 magnetization 
 augmentation part        4.4639834 magnetization 

 Broyden mixing:
  rms(total) = 0.47377E-03    rms(broyden)= 0.46898E-03
  rms(prec ) = 0.47574E-03
  weight for this iteration     100.00

 eigenvalues of (default mixing * dielectric matrix)
  average eigenvalue GAMMA=   1.2820
  0.9671  1.5968

 Free energy of the ion-electron system (eV)
  ---------------------------------------------------
  alpha Z        PSCENC =         0.05142041
  Ewald energy   TEWEN  =       -55.30181893
  -Hartree energ DENC   =      -471.63145812
  -exchange      EXHF   =         0.00000000
  -V(xc)+E(xc)   XCENC  =        23.96398321
  PAW double counting   =       502.04343030     -590.62327411
  entropy T*S    EENTRO =        -0.02820948
  eigenvalues    EBANDS =      -174.55208251
  atomic energy  EATOM  =       766.04200436
  Solvation  Ediel_sol  =         0.00000000
  ---------------------------------------------------
  free energy    TOTEN  =        -0.03600487 eV

  energy without entropy =       -0.00779539  energy(sigma->0) =       -0.02190013


--------------------------------------------------------------------------------------------------------




--------------------------------------- Iteration      1(   8)  ---------------------------------------


    POTLOK:  cpu time      0.2378: real time      0.2397
    SETDIJ:  cpu time      0.0447: real time      0.0449
     EDDAV:  cpu time      0.0470: real time      0.0473
       DOS:  cpu time      0.0004: real time      0.0004
    CHARGE:  cpu time      0.0211: real time      0.0213
    MIXING:  cpu time      0.0046: real time      0.0046
    --------------------------------------------
      LOOP:  cpu time      0.3555: real time      0.3582

 eigenvalue-minimisations  :    16
 total energy-change (2. order) :-0.1331146E-04  (-0.1090553E-06)
 number of electron       7.0000020 magnetization 
 augmentation part        4.4639466 magnetization 

 Broyden mixing:
  rms(total) = 0.19553E-03    rms(broyden)= 0.19502E-03
  rms(prec ) = 0.19797E-03
  weight for this iteration     100.00

 eigenvalues of (default mixing * dielectric matrix)
  average eigenvalue GAMMA=   1.5365
  2.5051  1.0523  1.0523

 Free energy of the ion-electron system (eV)
  ---------------------------------------------------
  alpha Z        PSCENC =         0.05142041
  Ewald energy   TEWEN  =       -55.30181893
  -Hartree energ DENC   =      -471.63554329
  -exchange      EXHF   =         0.00000000
  -V(xc)+E(xc)   XCENC  =        23.96436090
  PAW double counting   =       502.11314790     -590.69518622
  entropy T*S    EENTRO =        -0.02820948
  eigenvalues    EBANDS =      -174.54619383
  atomic energy  EATOM  =       766.04200436
  Solvation  Ediel_sol  =         0.00000000
  ---------------------------------------------------
  free energy    TOTEN  =        -0.03601818 eV

  energy without entropy =       -0.00780870  energy(sigma->0) =       -0.02191344


--------------------------------------------------------------------------------------------------------




--------------------------------------- Iteration      1(   9)  ---------------------------------------


    POTLOK:  cpu time      0.2303: real time      0.2322
    SETDIJ:  cpu time      0.0444: real time      0.0446
     EDDAV:  cpu time      0.0618: real time      0.0623
       DOS:  cpu time      0.0003: real time      0.0003
    --------------------------------------------
      LOOP:  cpu time      0.3368: real time      0.3395

 eigenvalue-minimisations  :    24
 total energy-change (2. order) :-0.3429109E-05  (-0.5744730E-07)
 number of electron       7.0000020 magnetization 
 augmentation part        4.4639466 magnetization 

 Free energy of the ion-electron system (eV)
  ---------------------------------------------------
  alpha Z        PSCENC =         0.05142041
  Ewald energy   TEWEN  =       -55.30181893
  -Hartree energ DENC   =      -471.63729929
  -exchange      EXHF   =         0.00000000
  -V(xc)+E(xc)   XCENC  =        23.96452455
  PAW double counting   =       502.16344124     -590.74546201
  entropy T*S    EENTRO =        -0.02820948
  eigenvalues    EBANDS =      -174.54462245
  atomic energy  EATOM  =       766.04200436
  Solvation  Ediel_sol  =         0.00000000
  ---------------------------------------------------
  free energy    TOTEN  =        -0.03602161 eV

  energy without entropy =       -0.00781213  energy(sigma->0) =       -0.02191687


--------------------------------------------------------------------------------------------------------




 average (electrostatic) potential at core
  the test charge radii are     0.9254
  (the norm of the test charge is              1.0000)
       1 -54.4367
 
 
 
 E-fermi :  -2.7138     XC(G=0):  -0.2811     alpha+bet : -0.0294

 Fermi energy:        -2.7138171423

 k-point     1 :       0.0000    0.0000    0.0000
  band No.  band energies     occupation 
      1     -28.6385      2.00000
      2     -28.6385      2.00000
      3     -28.6385      2.00000
      4      -2.7138      1.00000
      5      -0.7078      0.00000
      6      -0.7077      0.00000
      7      -0.7075      0.00000
      8      -0.1280      0.00000


--------------------------------------------------------------------------------------------------------


 soft charge-density along one line, spin component           1
         0         1         2         3         4         5         6         7         8         9
 total charge-density along one line
 
 pseudopotential strength for first ion, spin component:           1
-30.856  -0.000  -0.000   5.241   0.000   0.000   0.000   0.000
 -0.000 -30.856   0.000   0.000   5.241  -0.000   0.000   0.000
 -0.000   0.000 -30.856   0.000  -0.000   5.241  -0.000  -0.000
  5.241   0.000   0.000   5.603  -0.000  -0.000  -0.000  -0.000
  0.000   5.241  -0.000  -0.000   5.603  -0.000  -0.000  -0.000
  0.000  -0.000   5.241  -0.000  -0.000   5.603   0.000   0.000
  0.000   0.000  -0.000  -0.000  -0.000   0.000   1.415   7.117
  0.000   0.000  -0.000  -0.000  -0.000   0.000   7.117  35.237
 total augmentation occupancy for first ion, spin component:           1
  2.000   0.000  -0.000  -0.000  -0.000  -0.000  -0.000   0.000
  0.000   2.000  -0.000   0.000  -0.000  -0.000   0.000  -0.000
 -0.000  -0.000   2.000  -0.000  -0.000  -0.000  -0.000   0.000
 -0.000   0.000  -0.000   0.000   0.000   0.000   0.000   0.000
 -0.000  -0.000  -0.000   0.000   0.000   0.000  -0.000   0.000
 -0.000  -0.000  -0.000   0.000   0.000   0.000   0.000  -0.000
 -0.000   0.000  -0.000   0.000  -0.000   0.000   0.996   0.001
  0.000  -0.000   0.000   0.000   0.000  -0.000   0.001   0.000


------------------------ aborting loop because EDIFF is reached ----------------------------------------


    CHARGE:  cpu time      0.0216: real time      0.0217
    FORLOC:  cpu time      0.0033: real time      0.0033
    FORNL :  cpu time      0.0007: real time      0.0007
    STRESS:  cpu time      0.0124: real time      0.0125
    FORCOR:  cpu time      0.2249: real time      0.2267
    FORHAR:  cpu time      0.0562: real time      0.0567
    MIXING:  cpu time      0.0078: real time      0.0078
    OFIELD:  cpu time      0.0000: real time      0.0000

  FORCE on cell =-STRESS in cart. coord.  units (eV):
  Direction    XX          YY          ZZ          XY          YZ          ZX
  --------------------------------------------------------------------------------------
  Alpha Z     0.05142     0.05142     0.05142
  Ewald     -18.12359   -18.43417   -18.74406     0.00000     0.00000     0.00000
  Hartree   157.51874   157.21259   156.90706    -0.00001    -0.00000     0.00002
  E(xc)     -37.18114   -37.18114   -37.18114    -0.00000     0.00000     0.00000
  Local    -169.99067  -169.37396  -168.75856     0.00001     0.00000    -0.00002
  n-local   -22.46593   -22.46591   -22.46592    -0.00000     0.00000     0.00000
  augment    42.03089    42.03046    42.03005    -0.00000    -0.00000     0.00001
  Kinetic    48.15855    48.15854    48.15856     0.00000     0.00000    -0.00000
  Fock        0.00000     0.00000     0.00000     0.00000     0.00000     0.00000
  -------------------------------------------------------------------------------------
  Total      -0.00174    -0.00217    -0.00258    -0.00000     0.00000     0.00001
  in kB      -0.00047    -0.00059    -0.00070    -0.00000     0.00000     0.00000
  external pressure =       -0.00 kB  Pullay stress =        0.00 kB


 VOLUME and BASIS-vectors are now :
 -----------------------------------------------------------------------------
  energy-cutoff  :      520.00
  volume of cell :     5929.56
      direct lattice vectors                 reciprocal lattice vectors
    18.000000000  0.000000000  0.000000000     0.055555556 -0.000000000  0.000000000
     0.000000000 18.100000000  0.000000000     0.000000000  0.055248619  0.000000000
     0.000000000  0.000000000 18.200000000    -0.000000000 -0.000000000  0.054945055

  length of vectors
    18.000000000 18.100000000 18.200000000     0.055555556  0.055248619  0.054945055


 FORCES acting on ions
    electron-ion (+dipol)            ewald-force                    non-local-force                 convergence-correction
 -----------------------------------------------------------------------------------------------
   -.361E-04 -.231E-04 0.294E-04   0.104E-16 0.346E-17 -.969E-17   -.166E-03 -.302E-04 0.958E-04   0.190E-03 0.611E-04 -.112E-03
 -----------------------------------------------------------------------------------------------
   -.361E-04 -.231E-04 0.294E-04   0.104E-16 0.346E-17 -.969E-17   -.166E-03 -.302E-04 0.958E-04   0.190E-03 0.611E-04 -.112E-03
 
 
 POSITION                                       TOTAL-FORCE (eV/Angst)
 -----------------------------------------------------------------------------------
      0.00000      0.00000      0.00000        -0.000013      0.000008      0.000013
 -----------------------------------------------------------------------------------
    total drift:                               -0.000013      0.000008      0.000013


--------------------------------------------------------------------------------------------------------



  FREE ENERGIE OF THE ION-ELECTRON SYSTEM (eV)
  ---------------------------------------------------
  free  energy   TOTEN  =        -0.03602161 eV

  energy  without entropy=       -0.00781213  energy(sigma->0) =       -0.02191687
 


--------------------------------------------------------------------------------------------------------


    POTLOK:  cpu time      0.2794: real time      0.2811


--------------------------------------------------------------------------------------------------------


     LOOP+:  cpu time      2.6283: real time      2.6516
    4ORBIT:  cpu time      0.0000: real time      0.0000

 total amount of memory used by VASP MPI-rank0    68130. kBytes
=======================================================================

   base      :      30000. kBytes
   nonl-proj :        198. kBytes
   fftplans  :      14937. kBytes
   grid      :      22836. kBytes
   one-center:          1. kBytes
   wavefun   :        158. kBytes
 
  
  
 General timing and accounting informations for this job:
 ========================================================
  
                  Total CPU time used (sec):        5.005
                            User time (sec):        4.327
                          System time (sec):        0.678
                         Elapsed time (sec):        5.620
  
                   Maximum memory used (kb):      456076.
                   Average memory used (kb):          N/A
  
                          Minor page faults:        49421
                          Major page faults:           22
                 Voluntary context switches:         1162
