 vasp.6.4.2 20Jul23 (build Aug 07 2024 12:45:50) gamma-only                     
  
 executed on             LinuxIFC date 2026.09.30  12:18:40
 running   64 mpi-ranks, on    1 nodes
 distrk:  each k-point on   64 cores,    1 groups
 distr:  one band on NCORE=  32 cores,    2 groups


--------------------------------------------------------------------------------------------------------


 INCAR:
   ALGO = Normal
   EDIFF = 1e-05
   EFERMI = Midgap
   ENCUT = 520.0
   GGA = Pe
   GGA_COMPAT = False
   IBRION = -1
   ISMEAR = 0
   ISPIN = 2
   ISYM = 0
   LAECHG = False
   LASPH = True
   LCHARG = False
   LMAXMIX = 6
   LMIXTAU = True
   LREAL = False
   LWAVE = False
   MAGMOM = 1*1.0
   NCORE = 32
   NELM = 400
   NSW = 0
   PREC = Accurate
   SIGMA = 0.05
   SYSTEM = Cl_atom_ispin2

 POTCAR:    PAW_PBE Cl 06Sep2000                  
 -----------------------------------------------------------------------------
|                                                                             |
|           W    W    AA    RRRRR   N    N  II  N    N   GGGG   !!!           |
|           W    W   A  A   R    R  NN   N  II  NN   N  G    G  !!!           |
|           W    W  A    A  R    R  N N  N  II  N N  N  G       !!!           |
|           W WW W  AAAAAA  RRRRR   N  N N  II  N  N N  G  GGG   !            |
|           WW  WW  A    A  R   R   N   NN  II  N   NN  G    G                |
|           W    W  A    A  R    R  N    N  II  N    N   GGGG   !!!           |
|                                                                             |
|     For optimal performance we recommend to set                             |
|       NCORE = 2 up to number-of-cores-per-socket                            |
|     NCORE specifies how many cores store one orbital (NPAR=cpu/NCORE).      |
|     This setting can greatly improve the performance of VASP for DFT.       |
|     The default, NCORE=1 might be grossly inefficient on modern             |
|     multi-core architectures or massively parallel machines. Do your        |
|     own testing! More info at https://www.vasp.at/wiki/index.php/NCORE      |
|     Unfortunately you need to use the default for GW and RPA                |
|     calculations (for HF NCORE is supported but not extensively tested      |
|     yet).                                                                   |
|                                                                             |
 -----------------------------------------------------------------------------

 POTCAR:    PAW_PBE Cl 06Sep2000                  
   SHA256 =  9f1b6e6ed4247ac726a768b330d26d7667cc3c95a39ff49c1d064c2d9dcce931 Cl/POTCAR             
   COPYR  = (c) Copyright 06Sep2000 Georg Kresse                                                    
   COPYR  = This file is part of the software VASP. Any use, copying, and all other rights are regul
   COPYR  = If you do not have a valid VASP license, you may not use, copy or distribute this file. 
   VRHFIN =Cl: s2p5                                                                                 
   LEXCH  = PE                                                                                      
   EATOM  =   409.7259 eV,   30.1140 Ry                                                             
                                                                                                    
   TITEL  = PAW_PBE Cl 06Sep2000                                                                    
   LULTRA =        F    use ultrasoft PP ?                                                          
   IUNSCR =        1    unscreen: 0-lin 1-nonlin 2-no                                               
   RPACOR =    1.500    partial core radius                                                         
   POMASS =   35.453; ZVAL   =    7.000    mass and valenz                                          
   RCORE  =    1.900    outmost cutoff radius                                                       
   RWIGS  =    2.100; RWIGS  =    1.111    wigner-seitz radius (au A)                               
   ENMAX  =  262.472; ENMIN  =  196.854 eV                                                          
   ICORE  =        2    local potential                                                             
   LCOR   =        T    correct aug charges                                                         
   LPAW   =        T    paw PP                                                                      
   EAUG   =  356.192                                                                                
   DEXC   =    0.000                                                                                
   RMAX   =    1.945    core radius for proj-oper                                                   
   RAUG   =    1.300    factor for augmentation sphere                                              
   RDEP   =    2.020    radius for radial grids                                                     
   RDEPT  =    1.678    core radius for aug-charge                                                  
                                                                                                    
   Atomic configuration                                                                             
    6 entries                                                                                       
     n  l   j            E        occ.                                                              
     1  0  0.50     -2751.1850   2.0000                                                             
     2  0  0.50      -252.6861   2.0000                                                             
     2  1  1.50      -191.6157   6.0000                                                             
     3  0  0.50       -20.6916   2.0000                                                             
     3  1  0.50        -8.5949   5.0000                                                             
     3  2  1.50        -8.1635   0.0000                                                             
   Description                                                                                      
     l       E           TYP  RCUT    TYP  RCUT                                                     
     0    -20.6915656     23  1.900                                                                 
     0    -22.0521482     23  1.900                                                                 
     1     -8.5948577     23  1.900                                                                 
     1     -5.3847331     23  1.900                                                                 
     2     -8.1634956     23  1.900                                                                 
  local pseudopotential read in
  partial core-charges read in
  partial kinetic energy density read in
  atomic valenz-charges read in
  non local Contribution for L=           0  read in
    real space projection operators read in
  non local Contribution for L=           0  read in
    real space projection operators read in
  non local Contribution for L=           1  read in
    real space projection operators read in
  non local Contribution for L=           1  read in
    real space projection operators read in
    PAW grid and wavefunctions read in
 
   number of l-projection  operators is LMAX  =           4
   number of lm-projection operators is LMMAX =           8
 
  PAW_PBE Cl 06Sep2000                  :
 energy of atom  1       EATOM= -409.7259
 kinetic energy error for atom=    0.0023 (will be added to EATOM!!)
 
 
 POSCAR: Cl1
  positions in direct lattice
  No initial velocities read in
 exchange correlation table for  LEXCH =        8
   RHO(1)=    0.500       N(1)  =     2000
   RHO(2)=  100.500       N(2)  =     4000
 


--------------------------------------------------------------------------------------------------------


 ion  position               nearest neighbor table
   1  0.000  0.000  0.000-
 

IMPORTANT INFORMATION: All symmetrisations will be switched off!
NOSYMM: (Re-)initialisation of all symmetry stuff for point group C_1.


----------------------------------------------------------------------------------------

                                     Primitive cell                                     

  volume of cell :    3442.8000

  direct lattice vectors                    reciprocal lattice vectors
    15.000000000  0.000000000  0.000000000     0.066666667 -0.000000000  0.000000000
     0.000000000 15.100000000  0.000000000     0.000000000  0.066225166  0.000000000
     0.000000000  0.000000000 15.200000000    -0.000000000 -0.000000000  0.065789474

  length of vectors
    15.000000000 15.100000000 15.200000000     0.066666667  0.066225166  0.065789474

  position of ions in fractional coordinates (direct lattice)
     0.000000000  0.000000000  0.000000000

  ion indices of the primitive-cell ions
   primitive index   ion index
                 1           1

----------------------------------------------------------------------------------------

 
 
 KPOINTS: Automatic kpoint scheme                 

Automatic generation of k-mesh.
 Grid dimensions read from file:
 generate k-points for:    1    1    1

 Generating k-lattice:

  Cartesian coordinates                     Fractional coordinates (reciprocal lattice)
     0.066666667 -0.000000000  0.000000000     1.000000000 -0.000000000  0.000000000
     0.000000000  0.066225166  0.000000000     0.000000000  1.000000000  0.000000000
    -0.000000000 -0.000000000  0.065789474     0.000000000 -0.000000000  1.000000000

  Length of vectors
     0.066666667  0.066225166  0.065789474

  Shift w.r.t. Gamma in fractional coordinates (k-lattice)
     0.000000000  0.000000000  0.000000000

 
 Subroutine IBZKPT returns following result:
 ===========================================
 
 Found      1 irreducible k-points:
 
 Following reciprocal coordinates:
            Coordinates               Weight
  0.000000  0.000000  0.000000      1.000000
 
 Following cartesian coordinates:
            Coordinates               Weight
  0.000000  0.000000  0.000000      1.000000
 


--------------------------------------------------------------------------------------------------------




 Dimension of arrays:
   k-points           NKPTS =      1   k-points in BZ     NKDIM =      1   number of bands    NBANDS=      8
   number of dos      NEDOS =    301   number of ions     NIONS =      1
   non local maximal  LDIM  =      4   non local SUM 2l+1 LMDIM =      8
   total plane-waves  NPLWV = ******
   max r-space proj   IRMAX =      1   max aug-charges    IRDMAX=  12767
   dimension x,y,z NGX =   112 NGY =  112 NGZ =  120
   dimension x,y,z NGXF=   224 NGYF=  224 NGZF=  240
   support grid    NGXF=   224 NGYF=  224 NGZF=  240
   ions per type =               1
   NGX,Y,Z   is equivalent  to a cutoff of  12.41, 12.33, 13.12 a.u.
   NGXF,Y,Z  is equivalent  to a cutoff of  24.83, 24.66, 26.25 a.u.

 SYSTEM =  Cl_atom_ispin2                          
 POSCAR =  Cl1                                     

 Startparameter for this run:
   NWRITE =      2    write-flag & timer
   PREC   = accura    normal or accurate (medium, high low for compatibility)
   ISTART =      0    job   : 0-new  1-cont  2-samecut
   ICHARG =      2    charge: 1-file 2-atom 10-const
   ISPIN  =      2    spin polarized calculation?
   LNONCOLLINEAR =      F non collinear calculations
   LSORBIT =      F    spin-orbit coupling
   INIWAV =      1    electr: 0-lowe 1-rand  2-diag
   LASPH  =      T    aspherical Exc in radial PAW
 Electronic Relaxation 1
   ENCUT  =  520.0 eV  38.22 Ry    6.18 a.u.  27.89 28.08 28.26*2*pi/ulx,y,z
   ENINI  =  520.0     initial cutoff
   ENAUG  =  356.2 eV  augmentation charge cutoff
   NELM   =    400;   NELMIN=  2; NELMDL= -5     # of ELM steps 
   EDIFF  = 0.1E-04   stopping-criterion for ELM
   LREAL  =      F    real-space projection
   NLSPLINE    = F    spline interpolate recip. space projectors
   LCOMPAT=      F    compatible to vasp.4.4
   GGA_COMPAT  = F    GGA compatible to vasp.4.4-vasp.4.6
   LMAXPAW     = -100 max onsite density
   LMAXMIX     =    6 max onsite mixed and CHGCAR
   VOSKOWN=      0    Vosko Wilk Nusair interpolation
   ROPT   =    0.00000
 Ionic relaxation
   EDIFFG = 0.1E-03   stopping-criterion for IOM
   NSW    =      0    number of steps for IOM
   NBLOCK =      1;   KBLOCK =      1    inner block; outer block 
   IBRION =     -1    ionic relax: 0-MD 1-quasi-New 2-CG
   NFREE  =      0    steps in history (QN), initial steepest desc. (CG)
   ISIF   =      2    stress and relaxation
   IWAVPR =     10    prediction:  0-non 1-charg 2-wave 3-comb
   ISYM   =      0    0-nonsym 1-usesym 2-fastsym
   LCORR  =      T    Harris-Foulkes like correction to forces

   POTIM  = 0.5000    time-step for ionic-motion
   TEIN   =    0.0    initial temperature
   TEBEG  =    0.0;   TEEND  =   0.0 temperature during run
   SMASS  =  -3.00    Nose mass-parameter (am)
   estimated Nose-frequenzy (Omega)   =  0.10E-29 period in steps = 0.13E+47 mass=  -0.514E-26a.u.
   SCALEE = 1.0000    scale energy and forces
   NPACO  =    256;   APACO  = 10.0  distance and # of slots for P.C.
   PSTRESS=    0.0 pullay stress

  Mass of Ions in am
   POMASS =  35.45
  Ionic Valenz
   ZVAL   =   7.00
  Atomic Wigner-Seitz radii
   RWIGS  =  -1.00
  virtual crystal weights 
   VCA    =   1.00
   NELECT =       7.0000    total number of electrons
   NUPDOWN=      -1.0000    fix difference up-down

 DOS related values:
   EMIN   =  10.00;   EMAX   =-10.00  energy-range for DOS
   EFERMI =   0.00;   METHOD = MIDGAP      
   ISMEAR =     0;   SIGMA  =   0.05  broadening in eV -4-tet -1-fermi 0-gaus

 Electronic relaxation 2 (details)
   IALGO  =     38    algorithm
   LDIAG  =      T    sub-space diagonalisation (order eigenvalues)
   LSUBROT=      F    optimize rotation matrix (better conditioning)
   TURBO    =      0    0=normal 1=particle mesh
   IRESTART =      0    0=no restart 2=restart with 2 vectors
   NREBOOT  =      0    no. of reboots
   NMIN     =      0    reboot dimension
   EREF     =   0.00    reference energy to select bands
   IMIX   =      4    mixing-type and parameters
     AMIX     =   0.40;   BMIX     =  1.00
     AMIX_MAG =   1.60;   BMIX_MAG =  1.00
     AMIN     =   0.10
     WC   =   100.;   INIMIX=   1;  MIXPRE=   1;  MAXMIX= -45

 Intra band minimization:
   WEIMIN = 0.0000     energy-eigenvalue tresh-hold
   EBREAK =  0.31E-06  absolut break condition
   DEPER  =   0.30     relativ break condition  

   TIME   =   0.40     timestep for ELM

  volume/ion in A,a.u.               =    3442.80     23233.16
  Fermi-wavevector in a.u.,A,eV,Ry     =   0.207398  0.391925  0.585237  0.043014
  Thomas-Fermi vector in A             =   0.971082
 
 Write flags
   LWAVE        =      F    write WAVECAR
   LDOWNSAMPLE  =      F    k-point downsampling of WAVECAR
   LCHARG       =      F    write CHGCAR
   LVTOT        =      F    write LOCPOT, total local potential
   LVHAR        =      F    write LOCPOT, Hartree potential only
   LELF         =      F    write electronic localiz. function (ELF)
   LORBIT       =      0    0 simple, 1 ext, 2 COOP (PROOUT), +10 PAW based schemes


 Dipole corrections
   LMONO  =      F    monopole corrections only (constant potential shift)
   LDIPOL =      F    correct potential (dipole corrections)
   IDIPOL =      0    1-x, 2-y, 3-z, 4-all directions 
   EPSILON=  1.0000000 bulk dielectric constant

 Exchange correlation treatment:
   GGA     =    PE    GGA type
   LEXCH   =     8    internal setting for exchange type
   LIBXC   =     F    Libxc                    
   VOSKOWN =     0    Vosko Wilk Nusair interpolation
   LHFCALC =     F    Hartree Fock is set to
   LHFONE  =     F    Hartree Fock one center treatment
   AEXX    =    0.0000 exact exchange contribution

 Linear response parameters
   LEPSILON=     F    determine dielectric tensor
   LRPA    =     F    only Hartree local field effects (RPA)
   LNABLA  =     F    use nabla operator in PAW spheres
   LVEL    =     F    velocity operator in full k-point grid
   CSHIFT  =0.1000    complex shift for real part using Kramers Kronig
   OMEGAMAX=  -1.0    maximum frequency
   DEG_THRESHOLD= 0.2000000E-02 threshold for treating states as degnerate
   RTIME   =   -0.100 relaxation time in fs
  (WPLASMAI=    0.000 imaginary part of plasma frequency in eV, 0.658/RTIME)
   DFIELD  = 0.0000000 0.0000000 0.0000000 field for delta impulse in time
 
  Optional k-point grid parameters
   LKPOINTS_OPT  =     F    use optional k-point grid
   KPOINTS_OPT_MODE=     1    mode for optional k-point grid
 
 Orbital magnetization related:
   ORBITALMAG=     F  switch on orbital magnetization
   LCHIMAG   =     F  perturbation theory with respect to B field
   DQ        =  0.001000  dq finite difference perturbation B field
   LLRAUG    =     F  two centre corrections for induced B field
   LBONE     =     F  B-component reconstruction in AE one-centre
   LVGVCALC  =     T  calculate vGv susceptibility
   LVGVAPPL  =     F  apply vGv susceptibility instead of pGv for G=0

 Random number generation:
   RANDOM_GENERATOR = DEFAULT
   PCG_SEED         = not used


--------------------------------------------------------------------------------------------------------


 Static calculation
 charge density and potential will be updated during run
 spin polarized calculation
 Variant of blocked Davidson
 Davidson routine will perform the subspace rotation
 perform sub-space diagonalisation
    after iterative eigenvector-optimisation
 modified Broyden-mixing scheme, WC =      100.0
 initial mixing is a Kerker type mixing with AMIX =  0.4000 and BMIX =      1.0000
 Hartree-type preconditioning will be used
 using additional bands            4
 reciprocal scheme for non local part
 use partial core corrections
 calculate Harris-corrections to forces 
   (improved forces if not selfconsistent)
 use gradient corrections 
 use of overlap-Matrix (Vanderbilt PP)
 Gauss-broadening in eV      SIGMA  =   0.05


--------------------------------------------------------------------------------------------------------


  energy-cutoff  :      520.00
  volume of cell :     3442.80
      direct lattice vectors                 reciprocal lattice vectors
    15.000000000  0.000000000  0.000000000     0.066666667 -0.000000000  0.000000000
     0.000000000 15.100000000  0.000000000     0.000000000  0.066225166  0.000000000
     0.000000000  0.000000000 15.200000000    -0.000000000 -0.000000000  0.065789474

  length of vectors
    15.000000000 15.100000000 15.200000000     0.066666667  0.066225166  0.065789474


 
 k-points in units of 2pi/SCALE and weight: Automatic kpoint scheme                 
   0.00000000  0.00000000  0.00000000       1.000
 
 k-points in reciprocal lattice and weights: Automatic kpoint scheme                 
   0.00000000  0.00000000  0.00000000       1.000
 
 position of ions in fractional coordinates (direct lattice) 
   0.00000000  0.00000000  0.00000000
 
 position of ions in cartesian coordinates  (Angst):
   0.00000000  0.00000000  0.00000000
 


--------------------------------------------------------------------------------------------------------


 use parallel FFT for orbitals z direction half grid
 k-point   1 :   0.0000 0.0000 0.0000  plane waves:   46338

 maximum and minimum number of plane-waves per node :      1457     1434

 maximum number of plane-waves:     46338
 maximum index in each direction: 
   IXMAX=   27   IYMAX=   28   IZMAX=   28
   IXMIN=  -27   IYMIN=  -28   IZMIN=    0


 parallel 3D FFT for wavefunctions:
    minimum data exchange during FFTs selected (reduces bandwidth)
 parallel 3D FFT for charge:
    minimum data exchange during FFTs selected (reduces bandwidth)


 total amount of memory used by VASP MPI-rank0    58360. kBytes
=======================================================================

   base      :      30000. kBytes
   nonl-proj :        116. kBytes
   fftplans  :       8156. kBytes
   grid      :      19898. kBytes
   one-center:          3. kBytes
   wavefun   :        187. kBytes
 
     INWAV:  cpu time      0.0000: real time      0.0003
 Broyden mixing: mesh for mixing (old mesh)
   NGX = 55   NGY = 57   NGZ = 57
  (NGX  =224   NGY  =224   NGZ  =240)
  gives a total of 178695 points

 initial charge density was supplied:
 charge density of overlapping atoms calculated
 number of electron       7.0000000 magnetization       1.0000000
 keeping initial charge density in first step


--------------------------------------------------------------------------------------------------------


 Maximum index for augmentation-charges          647 (set IRDMAX)


--------------------------------------------------------------------------------------------------------


 First call to EWALD:  gamma=   0.117
 Maximum number of real-space cells 3x 3x 3
 Maximum number of reciprocal cells 3x 3x 3

    FEWALD:  cpu time      0.0010: real time      0.0010


--------------------------------------- Ionic step        1  -------------------------------------------




--------------------------------------- Iteration      1(   1)  ---------------------------------------


    POTLOK:  cpu time      0.3186: real time      0.3211
    SETDIJ:  cpu time      0.1999: real time      0.2008
     EDDAV:  cpu time      0.0412: real time      0.0416
       DOS:  cpu time      0.0006: real time      0.0006
    --------------------------------------------
      LOOP:  cpu time      0.5603: real time      0.5642

 eigenvalue-minimisations  :    32
 total energy-change (2. order) : 0.5210309E+02  (-0.9818243E+02)
 number of electron       7.0000000 magnetization       1.0000000
 augmentation part        7.0000000 magnetization       1.0000000

 Free energy of the ion-electron system (eV)
  ---------------------------------------------------
  alpha Z        PSCENC =         0.06134537
  Ewald energy   TEWEN  =       -66.28833240
  -Hartree energ DENC   =      -278.70838876
  -exchange      EXHF   =         0.00000000
  -V(xc)+E(xc)   XCENC  =        19.36397008
  PAW double counting   =       325.19015413     -325.30065497
  entropy T*S    EENTRO =        -0.00000168
  eigenvalues    EBANDS =       -31.93855511
  atomic energy  EATOM  =       409.72355349
  Solvation  Ediel_sol  =         0.00000000
  ---------------------------------------------------
  free energy    TOTEN  =        52.10309014 eV

  energy without entropy =       52.10309182  energy(sigma->0) =       52.10309098


--------------------------------------------------------------------------------------------------------




--------------------------------------- Iteration      1(   2)  ---------------------------------------


     EDDAV:  cpu time      0.0390: real time      0.0399
       DOS:  cpu time      0.0002: real time      0.0002
    --------------------------------------------
      LOOP:  cpu time      0.0392: real time      0.0401

 eigenvalue-minimisations  :    32
 total energy-change (2. order) :-0.9779367E+01  (-0.9568917E+01)
 number of electron       7.0000000 magnetization       1.0000000
 augmentation part        7.0000000 magnetization       1.0000000

 Free energy of the ion-electron system (eV)
  ---------------------------------------------------
  alpha Z        PSCENC =         0.06134537
  Ewald energy   TEWEN  =       -66.28833240
  -Hartree energ DENC   =      -278.70838876
  -exchange      EXHF   =         0.00000000
  -V(xc)+E(xc)   XCENC  =        19.36397008
  PAW double counting   =       325.19015413     -325.30065497
  entropy T*S    EENTRO =        -0.00033692
  eigenvalues    EBANDS =       -41.71758664
  atomic energy  EATOM  =       409.72355349
  Solvation  Ediel_sol  =         0.00000000
  ---------------------------------------------------
  free energy    TOTEN  =        42.32372337 eV

  energy without entropy =       42.32406029  energy(sigma->0) =       42.32389183


--------------------------------------------------------------------------------------------------------




--------------------------------------- Iteration      1(   3)  ---------------------------------------


     EDDAV:  cpu time      0.0612: real time      0.0619
       DOS:  cpu time      0.0002: real time      0.0002
    --------------------------------------------
      LOOP:  cpu time      0.0614: real time      0.0621

 eigenvalue-minimisations  :    64
 total energy-change (2. order) :-0.3351399E+02  (-0.3343243E+02)
 number of electron       7.0000000 magnetization       1.0000000
 augmentation part        7.0000000 magnetization       1.0000000

 Free energy of the ion-electron system (eV)
  ---------------------------------------------------
  alpha Z        PSCENC =         0.06134537
  Ewald energy   TEWEN  =       -66.28833240
  -Hartree energ DENC   =      -278.70838876
  -exchange      EXHF   =         0.00000000
  -V(xc)+E(xc)   XCENC  =        19.36397008
  PAW double counting   =       325.19015413     -325.30065497
  entropy T*S    EENTRO =        -0.01558004
  eigenvalues    EBANDS =       -75.21632971
  atomic energy  EATOM  =       409.72355349
  Solvation  Ediel_sol  =         0.00000000
  ---------------------------------------------------
  free energy    TOTEN  =         8.80973719 eV

  energy without entropy =        8.82531723  energy(sigma->0) =        8.81752721


--------------------------------------------------------------------------------------------------------




--------------------------------------- Iteration      1(   4)  ---------------------------------------


     EDDAV:  cpu time      0.0360: real time      0.0363
       DOS:  cpu time      0.0003: real time      0.0004
    --------------------------------------------
      LOOP:  cpu time      0.0364: real time      0.0366

 eigenvalue-minimisations  :    32
 total energy-change (2. order) :-0.8748443E+01  (-0.8092986E+01)
 number of electron       7.0000000 magnetization       1.0000000
 augmentation part        7.0000000 magnetization       1.0000000

 Free energy of the ion-electron system (eV)
  ---------------------------------------------------
  alpha Z        PSCENC =         0.06134537
  Ewald energy   TEWEN  =       -66.28833240
  -Hartree energ DENC   =      -278.70838876
  -exchange      EXHF   =         0.00000000
  -V(xc)+E(xc)   XCENC  =        19.36397008
  PAW double counting   =       325.19015413     -325.30065497
  entropy T*S    EENTRO =        -0.02714715
  eigenvalues    EBANDS =       -83.95320579
  atomic energy  EATOM  =       409.72355349
  Solvation  Ediel_sol  =         0.00000000
  ---------------------------------------------------
  free energy    TOTEN  =         0.06129399 eV

  energy without entropy =        0.08844114  energy(sigma->0) =        0.07486757


--------------------------------------------------------------------------------------------------------




--------------------------------------- Iteration      1(   5)  ---------------------------------------


     EDDAV:  cpu time      0.0662: real time      0.0668
       DOS:  cpu time      0.0004: real time      0.0004
    CHARGE:  cpu time      0.0305: real time      0.0307
    MIXING:  cpu time      0.0037: real time      0.0037
    --------------------------------------------
      LOOP:  cpu time      0.1008: real time      0.1016

 eigenvalue-minimisations  :    32
 total energy-change (2. order) :-0.3309109E+00  (-0.3199425E+00)
 number of electron       7.0000001 magnetization       1.0000000
 augmentation part       -0.9606803 magnetization      -0.0462135

 Broyden mixing:
  rms(total) = 0.41632E-01    rms(broyden)= 0.41598E-01
  rms(prec ) = 0.41700E-01
  weight for this iteration     100.00

 Free energy of the ion-electron system (eV)
  ---------------------------------------------------
  alpha Z        PSCENC =         0.06134537
  Ewald energy   TEWEN  =       -66.28833240
  -Hartree energ DENC   =      -278.70838876
  -exchange      EXHF   =         0.00000000
  -V(xc)+E(xc)   XCENC  =        19.36397008
  PAW double counting   =       325.19015413     -325.30065497
  entropy T*S    EENTRO =        -0.03856081
  eigenvalues    EBANDS =       -84.27270306
  atomic energy  EATOM  =       409.72355349
  Solvation  Ediel_sol  =         0.00000000
  ---------------------------------------------------
  free energy    TOTEN  =        -0.26961694 eV

  energy without entropy =       -0.23105613  energy(sigma->0) =       -0.25033653


--------------------------------------------------------------------------------------------------------




--------------------------------------- Iteration      1(   6)  ---------------------------------------


    POTLOK:  cpu time      0.3191: real time      0.3216
    SETDIJ:  cpu time      0.2003: real time      0.2012
     EDDAV:  cpu time      0.0584: real time      0.0589
       DOS:  cpu time      0.0004: real time      0.0004
    CHARGE:  cpu time      0.0224: real time      0.0226
    MIXING:  cpu time      0.0041: real time      0.0041
    --------------------------------------------
      LOOP:  cpu time      0.6047: real time      0.6088

 eigenvalue-minimisations  :    56
 total energy-change (2. order) :-0.8193043E-02  (-0.6709952E-02)
 number of electron       7.0000001 magnetization       1.0000000
 augmentation part       -0.9613801 magnetization      -0.0427769

 Broyden mixing:
  rms(total) = 0.50103E-01    rms(broyden)= 0.50101E-01
  rms(prec ) = 0.52182E-01
  weight for this iteration     100.00

 eigenvalues of (default mixing * dielectric matrix)
  average eigenvalue GAMMA=   0.4932
  0.4932

 Free energy of the ion-electron system (eV)
  ---------------------------------------------------
  alpha Z        PSCENC =         0.06134537
  Ewald energy   TEWEN  =       -66.28833240
  -Hartree energ DENC   =      -278.65668512
  -exchange      EXHF   =         0.00000000
  -V(xc)+E(xc)   XCENC  =        19.35957476
  PAW double counting   =       324.44230830     -324.55515317
  entropy T*S    EENTRO =        -0.03817749
  eigenvalues    EBANDS =       -84.32624373
  atomic energy  EATOM  =       409.72355349
  Solvation  Ediel_sol  =         0.00000000
  ---------------------------------------------------
  free energy    TOTEN  =        -0.27780998 eV

  energy without entropy =       -0.23963249  energy(sigma->0) =       -0.25872124


--------------------------------------------------------------------------------------------------------




--------------------------------------- Iteration      1(   7)  ---------------------------------------


    POTLOK:  cpu time      0.3365: real time      0.3387
    SETDIJ:  cpu time      0.2003: real time      0.2012
     EDDAV:  cpu time      0.0524: real time      0.0528
       DOS:  cpu time      0.0004: real time      0.0004
    CHARGE:  cpu time      0.0234: real time      0.0236
    MIXING:  cpu time      0.0042: real time      0.0043
    --------------------------------------------
      LOOP:  cpu time      0.6171: real time      0.6209

 eigenvalue-minimisations  :    48
 total energy-change (2. order) :-0.2663716E-02  (-0.1530106E-03)
 number of electron       7.0000001 magnetization       1.0000000
 augmentation part       -0.9612536 magnetization      -0.0428701

 Broyden mixing:
  rms(total) = 0.12433E+00    rms(broyden)= 0.12433E+00
  rms(prec ) = 0.13211E+00
  weight for this iteration     100.00

 eigenvalues of (default mixing * dielectric matrix)
  average eigenvalue GAMMA=   0.3676
  0.6154  0.1198

 Free energy of the ion-electron system (eV)
  ---------------------------------------------------
  alpha Z        PSCENC =         0.06134537
  Ewald energy   TEWEN  =       -66.28833240
  -Hartree energ DENC   =      -278.69205077
  -exchange      EXHF   =         0.00000000
  -V(xc)+E(xc)   XCENC  =        19.36157099
  PAW double counting   =       324.98154571     -325.09393192
  entropy T*S    EENTRO =        -0.03462990
  eigenvalues    EBANDS =       -84.29954426
  atomic energy  EATOM  =       409.72355349
  Solvation  Ediel_sol  =         0.00000000
  ---------------------------------------------------
  free energy    TOTEN  =        -0.28047370 eV

  energy without entropy =       -0.24584380  energy(sigma->0) =       -0.26315875


--------------------------------------------------------------------------------------------------------




--------------------------------------- Iteration      1(   8)  ---------------------------------------


    POTLOK:  cpu time      0.3260: real time      0.3286
    SETDIJ:  cpu time      0.2012: real time      0.2022
     EDDAV:  cpu time      0.0439: real time      0.0442
       DOS:  cpu time      0.0004: real time      0.0004
    CHARGE:  cpu time      0.0216: real time      0.0218
    MIXING:  cpu time      0.0041: real time      0.0041
    --------------------------------------------
      LOOP:  cpu time      0.5972: real time      0.6013

 eigenvalue-minimisations  :    40
 total energy-change (2. order) : 0.3058086E-02  (-0.1572800E-03)
 number of electron       7.0000001 magnetization       1.0000000
 augmentation part       -0.9611861 magnetization      -0.0429188

 Broyden mixing:
  rms(total) = 0.36342E-01    rms(broyden)= 0.36341E-01
  rms(prec ) = 0.38533E-01
  weight for this iteration     100.00

 eigenvalues of (default mixing * dielectric matrix)
  average eigenvalue GAMMA=   0.4995
  0.6630  0.6630  0.1726

 Free energy of the ion-electron system (eV)
  ---------------------------------------------------
  alpha Z        PSCENC =         0.06134537
  Ewald energy   TEWEN  =       -66.28833240
  -Hartree energ DENC   =      -278.70273435
  -exchange      EXHF   =         0.00000000
  -V(xc)+E(xc)   XCENC  =        19.36171046
  PAW double counting   =       325.17349984     -325.28565589
  entropy T*S    EENTRO =        -0.03826104
  eigenvalues    EBANDS =       -84.28254109
  atomic energy  EATOM  =       409.72355349
  Solvation  Ediel_sol  =         0.00000000
  ---------------------------------------------------
  free energy    TOTEN  =        -0.27741561 eV

  energy without entropy =       -0.23915457  energy(sigma->0) =       -0.25828509


--------------------------------------------------------------------------------------------------------




--------------------------------------- Iteration      1(   9)  ---------------------------------------


    POTLOK:  cpu time      0.3202: real time      0.3226
    SETDIJ:  cpu time      0.2013: real time      0.2022
     EDDAV:  cpu time      0.0516: real time      0.0520
       DOS:  cpu time      0.0004: real time      0.0004
    CHARGE:  cpu time      0.0225: real time      0.0227
    MIXING:  cpu time      0.0040: real time      0.0040
    --------------------------------------------
      LOOP:  cpu time      0.5999: real time      0.6039

 eigenvalue-minimisations  :    48
 total energy-change (2. order) :-0.1650230E-02  (-0.5241947E-03)
 number of electron       7.0000001 magnetization       1.0000000
 augmentation part       -0.9610660 magnetization      -0.0430829

 Broyden mixing:
  rms(total) = 0.96025E-01    rms(broyden)= 0.96024E-01
  rms(prec ) = 0.10207E+00
  weight for this iteration     100.00

 eigenvalues of (default mixing * dielectric matrix)
  average eigenvalue GAMMA=   0.4539
  0.7685  0.7050  0.1878  0.1543

 Free energy of the ion-electron system (eV)
  ---------------------------------------------------
  alpha Z        PSCENC =         0.06134537
  Ewald energy   TEWEN  =       -66.28833240
  -Hartree energ DENC   =      -278.73892604
  -exchange      EXHF   =         0.00000000
  -V(xc)+E(xc)   XCENC  =        19.36424673
  PAW double counting   =       325.67920174     -325.79202030
  entropy T*S    EENTRO =        -0.03624570
  eigenvalues    EBANDS =       -84.25188872
  atomic energy  EATOM  =       409.72355349
  Solvation  Ediel_sol  =         0.00000000
  ---------------------------------------------------
  free energy    TOTEN  =        -0.27906584 eV

  energy without entropy =       -0.24282014  energy(sigma->0) =       -0.26094299


--------------------------------------------------------------------------------------------------------




--------------------------------------- Iteration      1(  10)  ---------------------------------------


    POTLOK:  cpu time      0.3323: real time      0.3347
    SETDIJ:  cpu time      0.2014: real time      0.2023
     EDDAV:  cpu time      0.0443: real time      0.0447
       DOS:  cpu time      0.0004: real time      0.0004
    CHARGE:  cpu time      0.0222: real time      0.0224
    MIXING:  cpu time      0.0043: real time      0.0043
    --------------------------------------------
      LOOP:  cpu time      0.6049: real time      0.6088

 eigenvalue-minimisations  :    40
 total energy-change (2. order) : 0.1830675E-02  (-0.1822445E-03)
 number of electron       7.0000001 magnetization       1.0000000
 augmentation part       -0.9610211 magnetization      -0.0431700

 Broyden mixing:
  rms(total) = 0.61693E-02    rms(broyden)= 0.61645E-02
  rms(prec ) = 0.63385E-02
  weight for this iteration     100.00

 eigenvalues of (default mixing * dielectric matrix)
  average eigenvalue GAMMA=   0.5533
  0.8960  0.8960  0.6317  0.1868  0.1561

 Free energy of the ion-electron system (eV)
  ---------------------------------------------------
  alpha Z        PSCENC =         0.06134537
  Ewald energy   TEWEN  =       -66.28833240
  -Hartree energ DENC   =      -278.75237511
  -exchange      EXHF   =         0.00000000
  -V(xc)+E(xc)   XCENC  =        19.36489758
  PAW double counting   =       325.87061030     -325.98368926
  entropy T*S    EENTRO =        -0.03856404
  eigenvalues    EBANDS =       -84.23468109
  atomic energy  EATOM  =       409.72355349
  Solvation  Ediel_sol  =         0.00000000
  ---------------------------------------------------
  free energy    TOTEN  =        -0.27723517 eV

  energy without entropy =       -0.23867113  energy(sigma->0) =       -0.25795315


--------------------------------------------------------------------------------------------------------




--------------------------------------- Iteration      1(  11)  ---------------------------------------


    POTLOK:  cpu time      0.3223: real time      0.3248
    SETDIJ:  cpu time      0.2002: real time      0.2011
     EDDAV:  cpu time      0.0588: real time      0.0593
       DOS:  cpu time      0.0004: real time      0.0004
    CHARGE:  cpu time      0.0217: real time      0.0218
    MIXING:  cpu time      0.0046: real time      0.0047
    --------------------------------------------
      LOOP:  cpu time      0.6080: real time      0.6121

 eigenvalue-minimisations  :    56
 total energy-change (2. order) :-0.2272373E-04  (-0.7131868E-05)
 number of electron       7.0000001 magnetization       1.0000000
 augmentation part       -0.9608514 magnetization      -0.0431335

 Broyden mixing:
  rms(total) = 0.35980E-02    rms(broyden)= 0.35975E-02
  rms(prec ) = 0.36844E-02
  weight for this iteration     100.00

 eigenvalues of (default mixing * dielectric matrix)
  average eigenvalue GAMMA=   0.7009
  1.7496  0.8227  0.6451  0.6451  0.1866  0.1562

 Free energy of the ion-electron system (eV)
  ---------------------------------------------------
  alpha Z        PSCENC =         0.06134537
  Ewald energy   TEWEN  =       -66.28833240
  -Hartree energ DENC   =      -278.80837974
  -exchange      EXHF   =         0.00000000
  -V(xc)+E(xc)   XCENC  =        19.36861261
  PAW double counting   =       326.72127306     -326.83511644
  entropy T*S    EENTRO =        -0.03856383
  eigenvalues    EBANDS =       -84.18165001
  atomic energy  EATOM  =       409.72355349
  Solvation  Ediel_sol  =         0.00000000
  ---------------------------------------------------
  free energy    TOTEN  =        -0.27725789 eV

  energy without entropy =       -0.23869406  energy(sigma->0) =       -0.25797598


--------------------------------------------------------------------------------------------------------




--------------------------------------- Iteration      1(  12)  ---------------------------------------


    POTLOK:  cpu time      0.3179: real time      0.3202
    SETDIJ:  cpu time      0.2002: real time      0.2011
     EDDAV:  cpu time      0.0433: real time      0.0437
       DOS:  cpu time      0.0004: real time      0.0004
    CHARGE:  cpu time      0.0217: real time      0.0219
    MIXING:  cpu time      0.0048: real time      0.0049
    --------------------------------------------
      LOOP:  cpu time      0.5883: real time      0.5922

 eigenvalue-minimisations  :    40
 total energy-change (2. order) :-0.3484414E-04  (-0.4691976E-05)
 number of electron       7.0000001 magnetization       1.0000000
 augmentation part       -0.9607826 magnetization      -0.0431576

 Broyden mixing:
  rms(total) = 0.96082E-02    rms(broyden)= 0.96081E-02
  rms(prec ) = 0.10208E-01
  weight for this iteration     100.00

 eigenvalues of (default mixing * dielectric matrix)
  average eigenvalue GAMMA=   0.6453
  1.9055  0.8097  0.6636  0.6496  0.1866  0.1561  0.1460

 Free energy of the ion-electron system (eV)
  ---------------------------------------------------
  alpha Z        PSCENC =         0.06134537
  Ewald energy   TEWEN  =       -66.28833240
  -Hartree energ DENC   =      -278.83473695
  -exchange      EXHF   =         0.00000000
  -V(xc)+E(xc)   XCENC  =        19.37044090
  PAW double counting   =       327.22963330     -327.34377946
  entropy T*S    EENTRO =        -0.03854070
  eigenvalues    EBANDS =       -84.15687628
  atomic energy  EATOM  =       409.72355349
  Solvation  Ediel_sol  =         0.00000000
  ---------------------------------------------------
  free energy    TOTEN  =        -0.27729273 eV

  energy without entropy =       -0.23875203  energy(sigma->0) =       -0.25802238


--------------------------------------------------------------------------------------------------------




--------------------------------------- Iteration      1(  13)  ---------------------------------------


    POTLOK:  cpu time      0.3231: real time      0.3256
    SETDIJ:  cpu time      0.2006: real time      0.2015
     EDDAV:  cpu time      0.0670: real time      0.0675
       DOS:  cpu time      0.0004: real time      0.0004
    CHARGE:  cpu time      0.0228: real time      0.0229
    MIXING:  cpu time      0.0048: real time      0.0048
    --------------------------------------------
      LOOP:  cpu time      0.6186: real time      0.6226

 eigenvalue-minimisations  :    64
 total energy-change (2. order) : 0.1816869E-04  (-0.2694628E-05)
 number of electron       7.0000001 magnetization       1.0000000
 augmentation part       -0.9607765 magnetization      -0.0431572

 Broyden mixing:
  rms(total) = 0.24424E-02    rms(broyden)= 0.24424E-02
  rms(prec ) = 0.25752E-02
  weight for this iteration     100.00

 eigenvalues of (default mixing * dielectric matrix)
  average eigenvalue GAMMA=   0.7406
  2.1023  1.2288  0.8090  0.6512  0.6233  0.1866  0.1562  0.1678

 Free energy of the ion-electron system (eV)
  ---------------------------------------------------
  alpha Z        PSCENC =         0.06134537
  Ewald energy   TEWEN  =       -66.28833240
  -Hartree energ DENC   =      -278.83688530
  -exchange      EXHF   =         0.00000000
  -V(xc)+E(xc)   XCENC  =        19.37058218
  PAW double counting   =       327.25712708     -327.37132337
  entropy T*S    EENTRO =        -0.03856367
  eigenvalues    EBANDS =       -84.15477795
  atomic energy  EATOM  =       409.72355349
  Solvation  Ediel_sol  =         0.00000000
  ---------------------------------------------------
  free energy    TOTEN  =        -0.27727456 eV

  energy without entropy =       -0.23871090  energy(sigma->0) =       -0.25799273


--------------------------------------------------------------------------------------------------------




--------------------------------------- Iteration      1(  14)  ---------------------------------------


    POTLOK:  cpu time      0.3200: real time      0.3223
    SETDIJ:  cpu time      0.2002: real time      0.2011
     EDDAV:  cpu time      0.0441: real time      0.0445
       DOS:  cpu time      0.0004: real time      0.0004
    --------------------------------------------
      LOOP:  cpu time      0.5647: real time      0.5683

 eigenvalue-minimisations  :    40
 total energy-change (2. order) :-0.4321424E-05  (-0.5526544E-06)
 number of electron       7.0000001 magnetization       1.0000000
 augmentation part       -0.9607765 magnetization      -0.0431572

 Free energy of the ion-electron system (eV)
  ---------------------------------------------------
  alpha Z        PSCENC =         0.06134537
  Ewald energy   TEWEN  =       -66.28833240
  -Hartree energ DENC   =      -278.84059411
  -exchange      EXHF   =         0.00000000
  -V(xc)+E(xc)   XCENC  =        19.37091467
  PAW double counting   =       327.48765114     -327.60163040
  entropy T*S    EENTRO =        -0.03856492
  eigenvalues    EBANDS =       -84.15162172
  atomic energy  EATOM  =       409.72355349
  Solvation  Ediel_sol  =         0.00000000
  ---------------------------------------------------
  free energy    TOTEN  =        -0.27727889 eV

  energy without entropy =       -0.23871397  energy(sigma->0) =       -0.25799643


--------------------------------------------------------------------------------------------------------




 average (electrostatic) potential at core
  the test charge radii are     0.9406
  (the norm of the test charge is              1.0000)
       1-101.9021
 
 
 
 E-fermi :  -8.0466     XC(G=0):  -0.2160     alpha+bet : -0.0547

 Fermi energy:        -8.0466198323

 spin component 1

 k-point     1 :       0.0000    0.0000    0.0000
  band No.  band energies     occupation 
      1     -21.0766      1.00000
      2      -8.9466      1.00000
      3      -8.9445      1.00000
      4      -8.9436      1.00000
      5      -0.3816      0.00000
      6       0.2771      0.00000
      7       0.5029      0.00000
      8       0.5095      0.00000
 Fermi energy:        -8.0466198323

 spin component 2

 k-point     1 :       0.0000    0.0000    0.0000
  band No.  band energies     occupation 
      1     -20.1166      1.00000
      2      -8.0621      0.66909
      3      -8.0619      0.66701
      4      -8.0616      0.66391
      5      -0.3151      0.00000
      6       0.3040      0.00000
      7       0.5218      0.00000
      8       0.5310      0.00000


--------------------------------------------------------------------------------------------------------


 soft charge-density along one line, spin component           1
         0         1         2         3         4         5         6         7         8         9
 total charge-density along one line
 
 soft charge-density along one line, spin component           2
         0         1         2         3         4         5         6         7         8         9
 total charge-density along one line
 
 pseudopotential strength for first ion, spin component:           1
 50.851  53.366   0.000  -0.000   0.000   0.000  -0.000   0.000
 53.366  56.010   0.000  -0.000   0.000   0.000  -0.000   0.000
  0.000   0.000   9.482   0.000   0.000  11.748   0.000   0.000
 -0.000  -0.000   0.000   9.482  -0.000   0.000  11.748  -0.000
  0.000   0.000   0.000  -0.000   9.483   0.000  -0.000  11.748
  0.000   0.000  11.748   0.000   0.000  14.570   0.000   0.000
 -0.000  -0.000   0.000  11.748  -0.000   0.000  14.570  -0.000
  0.000   0.000   0.000  -0.000  11.748   0.000  -0.000  14.570
 pseudopotential strength for first ion, spin component:           2
 50.724  53.233  -0.000  -0.000   0.000  -0.000  -0.000   0.000
 53.233  55.868  -0.000  -0.000   0.000  -0.000  -0.000   0.000
 -0.000  -0.000   9.431  -0.000  -0.000  11.685  -0.000  -0.000
 -0.000  -0.000  -0.000   9.431   0.000  -0.000  11.685   0.000
  0.000   0.000  -0.000   0.000   9.431  -0.000   0.000  11.685
 -0.000  -0.000  11.685  -0.000  -0.000  14.493  -0.000  -0.000
 -0.000  -0.000  -0.000  11.685   0.000  -0.000  14.493   0.000
  0.000   0.000  -0.000   0.000  11.685  -0.000   0.000  14.493
 total augmentation occupancy for first ion, spin component:           1
  2.185  -0.147  -0.000   0.000  -0.000   0.000  -0.000   0.000
 -0.147   0.111   0.000  -0.000   0.000  -0.000  -0.000  -0.000
 -0.000   0.000   1.674  -0.002  -0.001  -0.002   0.000  -0.000
  0.000  -0.000  -0.002   1.676  -0.001   0.000  -0.002   0.000
 -0.000   0.000  -0.001  -0.001   1.669  -0.000   0.000  -0.002
  0.000  -0.000  -0.002   0.000  -0.000   0.000  -0.000  -0.000
 -0.000  -0.000   0.000  -0.002   0.000  -0.000   0.000  -0.000
  0.000  -0.000  -0.000   0.000  -0.002  -0.000  -0.000   0.000
 total augmentation occupancy for first ion, spin component:           2
 -1.006   0.486  -0.000  -0.000  -0.000  -0.000  -0.000  -0.000
  0.486  -0.014   0.000   0.000   0.000   0.000  -0.000   0.000
 -0.000   0.000   0.379   0.002   0.001  -0.012   0.000   0.000
 -0.000   0.000   0.002   0.377   0.000   0.000  -0.012   0.000
 -0.000   0.000   0.001   0.000   0.384   0.000   0.000  -0.012
 -0.000   0.000  -0.012   0.000   0.000   0.000  -0.000   0.000
 -0.000  -0.000   0.000  -0.012   0.000  -0.000   0.000  -0.000
 -0.000   0.000   0.000   0.000  -0.012   0.000  -0.000   0.000


------------------------ aborting loop because EDIFF is reached ----------------------------------------


    CHARGE:  cpu time      0.0215: real time      0.0218
    FORLOC:  cpu time      0.0021: real time      0.0021
    FORNL :  cpu time      0.0048: real time      0.0048
    STRESS:  cpu time      0.0162: real time      0.0163
    FORCOR:  cpu time      0.3525: real time      0.3548
    FORHAR:  cpu time      0.0308: real time      0.0310
    MIXING:  cpu time      0.0056: real time      0.0057
    OFIELD:  cpu time      0.0000: real time      0.0000

  FORCE on cell =-STRESS in cart. coord.  units (eV):
  Direction    XX          YY          ZZ          XY          YZ          ZX
  --------------------------------------------------------------------------------------
  Alpha Z     0.06135     0.06135     0.06135
  Ewald     -21.65015   -22.09650   -22.54168     0.00000     0.00000     0.00000
  Hartree    93.36828    92.95800    92.53027    -0.01219    -0.00720     0.00876
  E(xc)     -25.32100   -25.32125   -25.32136     0.00013     0.00011    -0.00011
  Local    -222.23276  -221.46285  -220.61730     0.05195     0.03096    -0.03742
  n-local    81.53592    81.55719    81.56390    -0.00977    -0.00610     0.00705
  augment   -19.92439   -19.93008   -19.93210     0.00260     0.00140    -0.00187
  Kinetic   114.16023   114.22213   114.24174    -0.02834    -0.01586     0.02042
  Fock        0.00000     0.00000     0.00000     0.00000     0.00000     0.00000
  -------------------------------------------------------------------------------------
  Total      -0.00251    -0.01202    -0.01518     0.00437     0.00331    -0.00317
  in kB      -0.00117    -0.00560    -0.00707     0.00204     0.00154    -0.00147
  external pressure =       -0.00 kB  Pullay stress =        0.00 kB


 VOLUME and BASIS-vectors are now :
 -----------------------------------------------------------------------------
  energy-cutoff  :      520.00
  volume of cell :     3442.80
      direct lattice vectors                 reciprocal lattice vectors
    15.000000000  0.000000000  0.000000000     0.066666667 -0.000000000  0.000000000
     0.000000000 15.100000000  0.000000000     0.000000000  0.066225166  0.000000000
     0.000000000  0.000000000 15.200000000    -0.000000000 -0.000000000  0.065789474

  length of vectors
    15.000000000 15.100000000 15.200000000     0.066666667  0.066225166  0.065789474


 FORCES acting on ions
    electron-ion (+dipol)            ewald-force                    non-local-force                 convergence-correction
 -----------------------------------------------------------------------------------------------
   0.158E-02 0.403E-03 -.815E-03   0.933E-17 0.909E-17 -.291E-17   -.133E-02 -.341E-03 0.825E-03   -.298E-03 -.104E-03 -.264E-06
 -----------------------------------------------------------------------------------------------
   0.158E-02 0.403E-03 -.815E-03   0.933E-17 0.909E-17 -.291E-17   -.133E-02 -.341E-03 0.825E-03   -.298E-03 -.104E-03 -.264E-06
 
 
 POSITION                                       TOTAL-FORCE (eV/Angst)
 -----------------------------------------------------------------------------------
      0.00000      0.00000      0.00000        -0.000047     -0.000042      0.000010
 -----------------------------------------------------------------------------------
    total drift:                               -0.000047     -0.000042      0.000010


--------------------------------------------------------------------------------------------------------



  FREE ENERGIE OF THE ION-ELECTRON SYSTEM (eV)
  ---------------------------------------------------
  free  energy   TOTEN  =        -0.27727889 eV

  energy  without entropy=       -0.23871397  energy(sigma->0) =       -0.25799643
 


--------------------------------------------------------------------------------------------------------


    POTLOK:  cpu time      0.5260: real time      0.5291


--------------------------------------------------------------------------------------------------------


     LOOP+:  cpu time      7.3635: real time      7.4145
    4ORBIT:  cpu time      0.0000: real time      0.0000

 total amount of memory used by VASP MPI-rank0    58360. kBytes
=======================================================================

   base      :      30000. kBytes
   nonl-proj :        116. kBytes
   fftplans  :       8156. kBytes
   grid      :      19898. kBytes
   one-center:          3. kBytes
   wavefun   :        187. kBytes
 
  
  
 General timing and accounting informations for this job:
 ========================================================
  
                  Total CPU time used (sec):        8.812
                            User time (sec):        7.701
                          System time (sec):        1.111
                         Elapsed time (sec):        9.411
  
                   Maximum memory used (kb):      445576.
                   Average memory used (kb):          N/A
  
                          Minor page faults:        71548
                          Major page faults:           20
                 Voluntary context switches:         1142
